LAMMPS (27 May 2021)
OMP_NUM_THREADS environment is not set. Defaulting to 1 thread. (src/comm.cpp:98)
  using 1 OpenMP thread(s) per MPI task
#pore simulation with negative charge

units lj
boundary p p p
atom_style full

read_data data.txt	#read_data
Reading data file ...
  orthogonal box = (-10.500000 -10.500000 -150.00000) to (10.500000 10.500000 150.00000)
  1 by 1 by 1 MPI processor grid
  reading atoms ...
  1318 atoms
  scanning bonds ...
  1 = max bonds/atom
  reading bonds ...
  99 bonds
Finding 1-2 1-3 1-4 neighbors ...
  special bond factors lj:    0        0        0       
  special bond factors coul:  0        0        0       
     2 = max # of 1-2 neighbors
     2 = max # of 1-3 neighbors
     4 = max # of 1-4 neighbors
     6 = max # of special neighbors
  special bonds CPU = 0.000 seconds
  read_data CPU = 0.007 seconds
group move type 2
100 atoms in group move
group driver id 1219		#CHANGE ID AS PER STRUCTURE THE FIRST ATOM TO ENTER PORE
1 atoms in group driver
region inside block -1.5 1.5 -1.5 1.5 -10.0 10.0
region outside1 block  -10.5 10.5 -10.5 10.5 -150.0 -10.0
region outside2 block  -10.5 10.5 -10.5 10.5 10.0 150.0

pair_style lj/cut/coul/cut 1.12		#lj/cut columb/cut
pair_coeff * * 1.0 1.0
velocity move create 1 80739

velocity driver set 0 0 0
neighbor 0.3 bin
neigh_modify every 20 delay 0 check no
bond_style harmonic
bond_coeff 1 218.6376 1

fix 1 move nve
#fix 3 move efield 0 0 -0.855 region inside
#fix 4 move efield 0 0 -0.0855 region outside1
#fix 5 move efield 0 0 -0.0855 region outside2
fix 2 move langevin 1 1 1 85748
fix 6 driver setforce 0 0 0

dump id all custom 500 output.lammpstrj id type xu yu zu		#vmd/pymol
thermo 100
timestep 0.005
run 800000
Neighbor list info ...
  update every 20 steps, delay 0 steps, check no
  max neighbors/atom: 2000, page size: 100000
  master list distance cutoff = 1.42
  ghost atom cutoff = 1.42
  binsize = 0.71, bins = 30 30 423
  1 neighbor lists, perpetual/occasional/extra = 1 0 0
  (1) pair lj/cut/coul/cut, perpetual
      attributes: half, newton on
      pair build: half/bin/newton
      stencil: half/bin/3d
      bin: standard
WARNING: Communication cutoff 1.4200000000000002 is shorter than a bond length based estimate of 1.8. This may lead to errors. (src/comm.cpp:730)
Per MPI rank memory allocation (min/avg/max) = 9.258 | 9.258 | 9.258 Mbytes
Step Temp E_pair E_mol TotEng Press 
       0  0.074668519    4368.2763            0    4368.3882    175.62122 
     100  0.061106244    4368.2756  0.058697949    4368.4259    175.61665 
     200  0.074334351     4368.275   0.06433677    4368.4508    175.61599 
     300  0.080385721     4368.272  0.066742269    4368.4593    175.61657 
     400  0.079493912     4368.263  0.065096916    4368.4473    175.61625 
     500  0.085801737    4368.2763  0.059058396     4368.464    175.61704 
     600  0.079260287    4368.2748  0.067110516    4368.4607    175.61618 
     700  0.070049081    4368.2763  0.071893882    4368.4532    175.61611 
     800  0.080847091    4368.2714  0.057094016    4368.4497    175.61749 
     900  0.072515918    4368.2763  0.066752968    4368.4518    175.61693 
    1000  0.079550677    4368.2763  0.059129066    4368.4547    175.61687 
    1100  0.082539904    4368.2741  0.059921592    4368.4578    175.61683 
    1200  0.070611829    4368.2763  0.062913875    4368.4451    175.61684 
    1300   0.06549473    4368.2721  0.055222202    4368.4255    175.61695 
    1400  0.074758591    4368.2733  0.053010815    4368.4384    175.61749 
    1500  0.074047944    4368.2709  0.062108237     4368.444    175.61655 
    1600  0.074838686    4368.2741  0.054980265    4368.4412    175.61768 
    1700  0.079978692    4368.2702   0.05001447    4368.4401    175.61891 
    1800   0.08048427    4368.2726  0.055902717    4368.4492    175.61804 
    1900  0.082562857    4368.2731  0.054728811    4368.4515    175.61767 
    2000  0.069363301     4368.271  0.050325058    4368.4253    175.61809 
    2100  0.065418112    4368.2679  0.055130419     4368.421    175.61815 
    2200  0.077861272    4368.2708  0.047217747    4368.4348    175.61837 
    2300  0.073544043    4368.2726   0.04179545    4368.4246     175.6187 
    2400  0.071578254    4368.2708  0.043979648     4368.422    175.61798 
    2500  0.064994743    4368.2748  0.043688751     4368.416    175.61787 
    2600  0.071591859    4368.2675  0.039135211    4368.4139    175.61891 
    2700  0.077508053    4368.2692   0.04836771    4368.4338     175.6191 
    2800  0.080102574    4368.2676  0.051931523    4368.4396     175.6179 
    2900  0.076209985    4368.2756  0.052734891    4368.4425     175.6187 
    3000   0.08016099    4368.2741  0.051411852    4368.4457    175.61876 
    3100  0.074566703    4368.2647  0.048430871    4368.4249    175.61814 
    3200  0.073230095    4368.2749  0.054225136    4368.4389    175.61882 
    3300  0.075023924    4368.2694  0.056969078    4368.4389    175.61801 
    3400   0.07606345    4368.2756  0.050912623    4368.4405    175.61819 
    3500  0.083262378    4368.2763  0.041569722    4368.4427    175.61888 
    3600  0.071789265     4368.269  0.037089343    4368.4137    175.61898 
    3700  0.067425277    4368.2722  0.051002234    4368.4243    175.61851 
    3800  0.078415588    4368.2734   0.05439865    4368.4454    175.61758 
    3900  0.076433302    4368.2695  0.049802139    4368.4339    175.61856 
    4000  0.075715815    4368.2736  0.051336649    4368.4384    175.61788 
    4100  0.069674669    4368.2709  0.049370512    4368.4247    175.61888 
    4200  0.082760762    4368.2742  0.040909795    4368.4392    175.61855 
    4300  0.072572961    4368.2742  0.035237126    4368.4183    175.61955 
    4400  0.070310605    4368.2722  0.047846715    4368.4255     175.6176 
    4500  0.076472414    4368.2725  0.039301047    4368.4265    175.61961 
    4600  0.078377469    4368.2695  0.047630346    4368.4346    175.61902 
    4700   0.07934637     4368.271  0.052440935    4368.4423    175.61842 
    4800  0.076968423    4368.2743  0.044321271     4368.434    175.61902 
    4900  0.077508894    4368.2714  0.047695146    4368.4353    175.61792 
    5000   0.09150284    4368.2701  0.038817247    4368.4461    175.61966 
    5100  0.084429135    4368.2706  0.046651376    4368.4438    175.61889 
    5200  0.092498946    4368.2741  0.052853608    4368.4656    175.61805 
    5300  0.080094455     4368.272   0.04774759    4368.4398    175.61996 
    5400  0.067966725    4368.2693  0.053765958    4368.4249    175.61879 
    5500  0.076391777    4368.2749  0.043337548    4368.4327    175.61937 
    5600  0.070855029     4368.272   0.04211529    4368.4203    175.61824 
    5700  0.080028825    4368.2725  0.048744455    4368.4412    175.61859 
    5800  0.076143264     4368.268  0.054799074    4368.4369    175.61803 
    5900  0.083268563    4368.2725  0.055898908    4368.4532    175.61823 
    6000   0.08573946    4368.2696  0.041107184    4368.4392     175.6192 
    6100  0.076113078    4368.2706  0.040283509     4368.425    175.61913 
    6200  0.073809617    4368.2738  0.040943304    4368.4254    175.61853 
    6300  0.066416703    4368.2735  0.048677842    4368.4218    175.61877 
    6400  0.070239573    4368.2716  0.036217777    4368.4131     175.6197 
    6500  0.063749511    4368.2712  0.033884612    4368.4006    175.61923 
    6600  0.071268184    4368.2695  0.034164494    4368.4105     175.6191 
    6700  0.068713043    4368.2728  0.035346694    4368.4111    175.61969 
    6800  0.078403888    4368.2712  0.036815301    4368.4256     175.6197 
    6900  0.079712122    4368.2719  0.049511241    4368.4409    175.61884 
    7000  0.074513403    4368.2721  0.053339463    4368.4371    175.61966 
    7100  0.078682118    4368.2678  0.038078834    4368.4238    175.61936 
    7200  0.072713144    4368.2715  0.043524724    4368.4241    175.61832 
    7300  0.084333751    4368.2686  0.041100758    4368.4361    175.61957 
    7400   0.06443604    4368.2693  0.046100546     4368.412    175.61802 
    7500  0.066236779     4368.269  0.036395949    4368.4047    175.61986 
    7600  0.073085761     4368.262  0.035282414    4368.4068    175.61919 
    7700  0.074698736    4368.2704  0.036703114    4368.4191    175.62018 
    7800  0.071424168    4368.2703  0.039566529    4368.4169    175.61955 
    7900  0.073941338    4368.2693  0.034830074    4368.4149    175.61924 
    8000   0.07059757    4368.2727   0.04362945    4368.4221    175.61942 
    8100  0.078926683    4368.2643  0.034318446    4368.4169    175.62013 
    8200  0.072515644    4368.2679   0.03184649    4368.4085    175.61929 
    8300   0.08020748    4368.2749  0.035790433    4368.4309    175.62017 
    8400   0.06870159    4368.2705  0.038484883     4368.412    175.61935 
    8500  0.077086163    4368.2727  0.039921848    4368.4282    175.61894 
    8600  0.067145587    4368.2711  0.045640265    4368.4174    175.61913 
    8700   0.08797751     4368.273  0.047557509    4368.4524    175.61936 
    8800  0.080301401    4368.2714  0.050684504    4368.4425    175.61852 
    8900  0.084151841    4368.2716  0.040462778    4368.4382     175.6191 
    9000  0.078417425    4368.2698  0.042447741    4368.4298    175.61932 
    9100  0.075041001    4368.2719  0.031099726    4368.4155    175.61999 
    9200  0.072782815    4368.2756  0.040124937    4368.4248    175.61877 
    9300  0.077522809    4368.2719  0.035482333    4368.4236    175.61966 
    9400  0.074242298    4368.2763  0.036041362    4368.4236     175.6198 
    9500  0.066510486    4368.2682  0.043579277    4368.4115    175.61979 
    9600  0.073332184    4368.2734  0.047335824    4368.4306    175.61928 
    9700  0.077576339     4368.271  0.038486164    4368.4258    175.62043 
    9800   0.06878471    4368.2708  0.038754783    4368.4127    175.61923 
    9900  0.076581241    4368.2706  0.038905378    4368.4243    175.62035 
   10000  0.088719507    4368.2728  0.041127899    4368.4469    175.62009 
   10100  0.073534663    4368.2701  0.043056272    4368.4234     175.6193 
   10200  0.063582253    4368.2685  0.051189029     4368.415    175.61902 
   10300   0.07428448    4368.2741  0.036404199    4368.4219    175.62019 
   10400  0.076961801    4368.2716  0.038268405    4368.4253    175.61918 
   10500  0.068460304    4368.2741  0.045824552    4368.4225    175.61907 
   10600  0.074477409    4368.2731  0.040907637    4368.4256    175.61904 
   10700  0.068141787     4368.272  0.042996473    4368.4171    175.61903 
   10800  0.080437086    4368.2714  0.041086428    4368.4331    175.61948 
   10900  0.079746025    4368.2674   0.04132794    4368.4283     175.6191 
   11000  0.077631699    4368.2712  0.042170695    4368.4297    175.61915 
   11100  0.073591257    4368.2734  0.054935971    4368.4386     175.6192 
   11200  0.074378526    4368.2679   0.06268162    4368.4421    175.61777 
   11300  0.094591473    4368.2741  0.034320331    4368.4502    175.61972 
   11400  0.074048711    4368.2687  0.042674886    4368.4223    175.61904 
   11500  0.069286233    4368.2677    0.0348244    4368.4064     175.6192 
   11600  0.062224041    4368.2741  0.043814612    4368.4112    175.61902 
   11700  0.067572262    4368.2732  0.036573554    4368.4111    175.61948 
   11800  0.076407873    4368.2726   0.03215743    4368.4192    175.61995 
   11900  0.067084367    4368.2719  0.043430833    4368.4159    175.61935 
   12000  0.080150745    4368.2688  0.046867374    4368.4358    175.61865 
   12100  0.077494248    4368.2687    0.0477105    4368.4325    175.62052 
   12200  0.081390073     4368.264  0.050914291     4368.437    175.61945 
   12300  0.076145238     4368.272  0.052022459    4368.4381    175.61902 
   12400  0.090148646    4368.2678  0.043226619    4368.4461    175.61932 
   12500  0.085749714    4368.2746  0.031091763    4368.4343    175.62024 
   12600  0.077209823    4368.2677  0.037867902    4368.4213    175.61959 
   12700  0.074107898    4368.2639  0.041736811    4368.4167    175.61879 
   12800  0.082863649    4368.2712  0.040750281    4368.4361    175.61849 
   12900  0.088739062     4368.266  0.050742829    4368.4498    175.61906 
   13000  0.078612924    4368.2655  0.052939339    4368.4363    175.61972 
   13100  0.070066194    4368.2649  0.047217217    4368.4172    175.61944 
   13200  0.080788496    4368.2734  0.036552907     4368.431    175.62046 
   13300  0.074723365     4368.269   0.02927546    4368.4102    175.62039 
   13400  0.071490951    4368.2707  0.033899664    4368.4118    175.61947 
   13500  0.071470924    4368.2719   0.03599181     4368.415    175.61995 
   13600  0.075958509    4368.2726  0.046026831    4368.4325    175.61905 
   13700  0.074255923    4368.2749  0.046853496     4368.433     175.6201 
   13800  0.064226603    4368.2684  0.043220313    4368.4079    175.61941 
   13900   0.08007938      4368.27  0.033122506    4368.4232     175.6203 
   14000  0.071855094    4368.2654  0.040268247    4368.4133    175.61922 
   14100  0.072559855    4368.2733  0.033897792     4368.416    175.61955 
   14200  0.079298382    4368.2729  0.041458324    4368.4332    175.61927 
   14300  0.071956015    4368.2683  0.040574989    4368.4167    175.61912 
   14400  0.067693677    4368.2653  0.036376033    4368.4031    175.61947 
   14500   0.07458908    4368.2678  0.035828823    4368.4154    175.62071 
   14600  0.074925577    4368.2614    0.0369289    4368.4106    175.61957 
   14700  0.077723564    4368.2642  0.035009936    4368.4157     175.6205 
   14800  0.070487972    4368.2675  0.035987226    4368.4091    175.62094 
   14900   0.07961256    4368.2764  0.036361218     4368.432    175.61925 
   15000   0.07162727     4368.269  0.045114287    4368.4214    175.61908 
   15100  0.073042533    4368.2678  0.034998841    4368.4123    175.62001 
   15200  0.076330034    4368.2749  0.040116526    4368.4294    175.61925 
   15300  0.075051715    4368.2691  0.035793343    4368.4174    175.62007 
   15400  0.085428233    4368.2681  0.038394125    4368.4345    175.61954 
   15500  0.069015921    4368.2718  0.057687068    4368.4329     175.6201 
   15600  0.074008578    4368.2685  0.047125855    4368.4265    175.62019 
   15700  0.078937959    4368.2739  0.043822753    4368.4361    175.61948 
   15800  0.087498623    4368.2664  0.048132909    4368.4457    175.61986 
   15900  0.084706256    4368.2687  0.037885429    4368.4336    175.61995 
   16000  0.079235879    4368.2705   0.04550182    4368.4347    175.61984 
   16100  0.070479389    4368.2706  0.041833867    4368.4181    175.61948 
   16200  0.074623223    4368.2734  0.031776529     4368.417    175.62003 
   16300  0.075047596    4368.2654  0.036001706    4368.4139    175.62017 
   16400  0.070547864    4368.2704  0.039232439    4368.4154    175.61933 
   16500  0.066387661    4368.2672  0.035015544    4368.4017    175.61883 
   16600  0.074807696     4368.271  0.040727393    4368.4238    175.61975 
   16700  0.076128739    4368.2719  0.050220604    4368.4363    175.61924 
   16800  0.075316231     4368.269  0.040103858     4368.422    175.61997 
   16900  0.072425151    4368.2667  0.033965812    4368.4092     175.6195 
   17000  0.074861515    4368.2702   0.02866197     4368.411    175.62058 
   17100  0.073200966    4368.2711  0.038772551    4368.4196    175.61998 
   17200  0.087369711    4368.2728  0.033462178    4368.4372    175.62027 
   17300  0.069894784    4368.2717   0.03387797    4368.4104    175.62044 
   17400  0.072007308    4368.2721  0.030585604    4368.4106    175.62003 
   17500  0.080354773    4368.2706  0.035696539    4368.4267    175.62001 
   17600  0.077087343    4368.2607    0.0491201    4368.4254    175.61927 
   17700  0.079711658    4368.2691  0.040734693    4368.4293    175.62086 
   17800  0.067689673    4368.2624  0.041246009    4368.4051     175.6198 
   17900  0.071662441    4368.2692  0.039395603     4368.416    175.61915 
   18000  0.073076627    4368.2711  0.048794637    4368.4294    175.61935 
   18100  0.082204327    4368.2648  0.049399754    4368.4374    175.62077 
   18200  0.083127082    4368.2698  0.039373677    4368.4338    175.61939 
   18300  0.092102365    4368.2726  0.038676302    4368.4493    175.62012 
   18400  0.077164485    4368.2714  0.040600307    4368.4277    175.61944 
   18500  0.078675932    4368.2661  0.045720284    4368.4297    175.61944 
   18600   0.07529755    4368.2663  0.047155737    4368.4263     175.6192 
   18700  0.087034876    4368.2728  0.038326023    4368.4416    175.62036 
   18800  0.093351932    4368.2625  0.040761512    4368.4432    175.61983 
   18900  0.081219145    4368.2687  0.053403562    4368.4438    175.62002 
   19000  0.087739146    4368.2652  0.044522261    4368.4413    175.62081 
   19100  0.083434513    4368.2672  0.036786602     4368.429    175.61972 
   19200  0.078392927    4368.2717  0.034573555    4368.4238    175.61956 
   19300  0.074869364    4368.2675  0.036150506    4368.4159    175.62004 
   19400  0.072262765    4368.2727  0.042351633    4368.4233    175.61973 
   19500  0.069420993    4368.2727  0.035593028    4368.4123    175.62034 
   19600  0.076093037    4368.2583  0.032283414    4368.4046    175.62067 
   19700  0.078276484    4368.2717  0.040135544    4368.4291    175.61999 
   19800  0.068328391     4368.273  0.040642017     4368.416     175.6199 
   19900  0.076878661    4368.2676  0.043244822    4368.4261    175.62001 
   20000  0.075872673    4368.2714  0.036928522    4368.4221    175.62069 
   20100  0.073500396      4368.27  0.041557536    4368.4218    175.62015 
   20200  0.065740035    4368.2756  0.044889204     4368.419    175.62007 
   20300  0.074842796    4368.2666  0.035624194    4368.4144    175.61963 
   20400  0.079814482    4368.2691  0.037215202     4368.426    175.61957 
   20500  0.084565444    4368.2673   0.04193954     4368.436    175.62005 
   20600  0.076417671     4368.269  0.047240316    4368.4307    175.61919 
   20700  0.087246272     4368.265   0.04278329    4368.4386    175.61987 
   20800  0.088710797    4368.2737  0.037523841    4368.4442    175.62022 
   20900  0.077388808    4368.2709  0.051286171    4368.4381    175.61921 
   21000  0.086613356    4368.2707  0.044360712    4368.4449    175.61918 
   21100  0.073271609     4368.266  0.045040682    4368.4209    175.62003 
   21200  0.082597672    4368.2693  0.036445136    4368.4295    175.62016 
   21300  0.073600213    4368.2714  0.043008532    4368.4248    175.61955 
   21400   0.08493791    4368.2755  0.030087122    4368.4329     175.6205 
   21500  0.080534641    4368.2692  0.041218654    4368.4312    175.62001 
   21600  0.070786051    4368.2713  0.048471478    4368.4258    175.61962 
   21700  0.078729147    4368.2602  0.042074781    4368.4203    175.62063 
   21800  0.074615847    4368.2663  0.049280133    4368.4274    175.61953 
   21900  0.079763525    4368.2578  0.045978263    4368.4234    175.62026 
   22000  0.083975771    4368.2679  0.046264136    4368.4401    175.61985 
   22100   0.08133855    4368.2657  0.047584189    4368.4352    175.62035 
   22200  0.078998912    4368.2671  0.046635374    4368.4322    175.62016 
   22300   0.07400426    4368.2653  0.045127616    4368.4213    175.61938 
   22400  0.075302057    4368.2683  0.037642166    4368.4188    175.62081 
   22500  0.071528071    4368.2665  0.043663738    4368.4173    175.62021 
   22600  0.072074008    4368.2687  0.039413499    4368.4161    175.62044 
   22700  0.070540552    4368.2683  0.042724154    4368.4167    175.62031 
   22800  0.066772972    4368.2671  0.045771488     4368.413    175.61944 
   22900  0.077594147      4368.27   0.03495249    4368.4213    175.62132 
   23000   0.06933434    4368.2721  0.045575535    4368.4216    175.61911 
   23100  0.083274031    4368.2683  0.038909683    4368.4321     175.6205 
   23200  0.082452646    4368.2666  0.031658326    4368.4219    175.61999 
   23300  0.089534531    4368.2641  0.027071065    4368.4254    175.62115 
   23400  0.078474664    4368.2739  0.030839392    4368.4223    175.62022 
   23500  0.074707506    4368.2703  0.043886099    4368.4261    175.62051 
   23600  0.071092119      4368.27  0.052547185    4368.4291    175.61894 
   23700  0.073337268    4368.2676    0.0480322    4368.4256    175.62059 
   23800  0.068908768    4368.2712  0.036361368    4368.4108    175.61979 
   23900  0.068952839    4368.2678  0.033951649    4368.4051    175.61991 
   24000  0.082325643    4368.2698  0.029097543    4368.4223    175.62069 
   24100  0.082278871    4368.2697  0.047152345    4368.4402     175.6204 
   24200  0.081314223    4368.2706  0.044731465    4368.4372    175.62028 
   24300  0.099247317    4368.2721  0.038720766    4368.4596    175.62023 
   24400  0.082829359    4368.2734  0.041750997    4368.4393    175.61968 
   24500  0.073779313    4368.2643  0.050793167    4368.4257    175.61941 
   24600  0.078376786    4368.2717  0.050978077    4368.4401    175.61927 
   24700  0.082169748     4368.264  0.044011793    4368.4312    175.61969 
   24800  0.089961339    4368.2733  0.038635345    4368.4468    175.62018 
   24900  0.075782188     4368.264  0.039373208     4368.417    175.61971 
   25000   0.08031617    4368.2694  0.037099989    4368.4269    175.62052 
   25100  0.070647016    4368.2705  0.048596953     4368.425    175.61942 
   25200  0.063077417    4368.2639  0.033811738    4368.3922    175.62072 
   25300  0.078145971    4368.2677  0.033780453    4368.4186    175.62095 
   25400  0.072893793     4368.274  0.033390827    4368.4166    175.62008 
   25500  0.071090666    4368.2692   0.02600798    4368.4017    175.62083 
   25600  0.064403108    4368.2713  0.040581237    4368.4084    175.61892 
   25700  0.080191306    4368.2698  0.036730682    4368.4267    175.62147 
   25800  0.074191093     4368.273  0.040034603    4368.4243    175.61883 
   25900  0.074932912    4368.2677  0.041661218    4368.4217    175.61988 
   26000  0.075263078    4368.2677  0.031402859    4368.4119    175.61993 
   26100  0.080046412    4368.2736  0.033162747    4368.4267    175.62021 
   26200  0.081310611    4368.2655   0.03907929    4368.4265    175.61978 
   26300  0.085014706    4368.2696  0.042142448    4368.4391    175.61997 
   26400  0.080915664    4368.2595  0.033368338    4368.4142    175.62085 
   26500  0.085530046    4368.2646  0.033822567    4368.4266    175.62016 
   26600  0.079086722    4368.2668  0.039762414    4368.4251    175.61989 
   26700  0.078632455    4368.2618  0.037617135    4368.4173    175.61909 
   26800  0.070587015    4368.2653  0.031617401    4368.4027     175.6199 
   26900   0.07024773    4368.2683  0.030649406    4368.4043    175.62098 
   27000  0.061341469    4368.2642  0.045543239    4368.4017    175.61987 
   27100  0.073042773    4368.2674   0.04638643    4368.4233    175.61965 
   27200  0.068363942    4368.2644  0.040722287    4368.4076    175.62067 
   27300  0.064963498    4368.2658  0.037049585    4368.4003    175.61981 
   27400  0.060650724    4368.2722  0.032709995    4368.3959    175.62092 
   27500  0.072437783    4368.2685  0.027909599     4368.405    175.62055 
   27600  0.074695143    4368.2585  0.034920928    4368.4054    175.62029 
   27700  0.074003578    4368.2687  0.033385309     4368.413    175.62115 
   27800  0.072737769    4368.2677  0.048376744    4368.4251    175.62012 
   27900  0.080278759    4368.2691  0.039138706    4368.4286    175.62065 
   28000  0.073071835    4368.2672  0.040275514     4368.417    175.61967 
   28100  0.079485073    4368.2613  0.031094162    4368.4115    175.62059 
   28200  0.083314907    4368.2688  0.044453103    4368.4381    175.62029 
   28300  0.075364464    4368.2711  0.048176626    4368.4323    175.61982 
   28400  0.072204429    4368.2716   0.05255852    4368.4323    175.61881 
   28500  0.079296024    4368.2691  0.040351892    4368.4283    175.61999 
   28600  0.076545016    4368.2742  0.044407074    4368.4333    175.61966 
   28700  0.066615122    4368.2754  0.049087181    4368.4243    175.62105 
   28800  0.068561906    4368.2674  0.036454799    4368.4066    175.62077 
   28900  0.073297945    4368.2705  0.036785261    4368.4171    175.61986 
   29000  0.068994757    4368.2726  0.039661717    4368.4157    175.62033 
   29100  0.071132895    4368.2709  0.051274844    4368.4288    175.61884 
   29200  0.077439498    4368.2716  0.048489001    4368.4361    175.61986 
   29300  0.066772268    4368.2718  0.050536947    4368.4224    175.61967 
   29400  0.084784387    4368.2716   0.03461727    4368.4333    175.62082 
   29500  0.070564037    4368.2644  0.043244025    4368.4134    175.62079 
   29600  0.068421484    4368.2719  0.044875733    4368.4193    175.61971 
   29700  0.062000027    4368.2707  0.038186855    4368.4018    175.62002 
   29800  0.074285666    4368.2705  0.037782623    4368.4197    175.62031 
   29900  0.078071459    4368.2664  0.034777166    4368.4182    175.62055 
   30000  0.079301039    4368.2728  0.043126294    4368.4348    175.61915 
   30100  0.076416081     4368.272  0.046360961    4368.4329    175.61996 
   30200   0.07876659    4368.2724  0.036264031    4368.4267       175.62 
   30300  0.069393078    4368.2682  0.047848116      4368.42    175.61859 
   30400  0.073301513    4368.2748  0.037004585    4368.4217    175.62003 
   30500  0.068113023    4368.2691  0.043321356    4368.4145    175.61983 
   30600  0.070490209     4368.269  0.034306577     4368.409     175.6192 
   30700  0.074020746    4368.2675  0.040204519    4368.4186    175.61992 
   30800  0.075332056    4368.2698  0.034181494    4368.4169    175.62081 
   30900  0.076247079    4368.2714  0.032996657    4368.4187    175.62111 
   31000  0.065385853    4368.2707  0.042609318    4368.4113    175.61933 
   31100  0.074140602    4368.2655  0.038198938    4368.4148    175.62024 
   31200  0.070714613    4368.2642   0.03970846    4368.4099    175.61985 
   31300  0.084629408    4368.2658  0.036196476    4368.4288    175.62044 
   31400  0.071358701    4368.2689  0.054019623    4368.4299     175.6187 
   31500  0.077830898    4368.2716  0.047398278    4368.4356    175.61945 
   31600  0.079711293     4368.263  0.041673279    4368.4241    175.61921 
   31700  0.068137609    4368.2648  0.037038097     4368.404    175.62025 
   31800  0.075970291    4368.2689  0.032077646    4368.4149    175.61981 
   31900  0.072483038    4368.2706  0.028714154     4368.408    175.61981 
   32000  0.076090516     4368.264   0.04148318    4368.4195    175.62017 
   32100  0.084153343    4368.2705  0.042589303    4368.4392    175.62024 
   32200  0.087625856    4368.2619  0.040140287    4368.4334    175.62003 
   32300  0.079083251    4368.2677   0.03723635    4368.4235    175.62169 
   32400  0.069334441    4368.2687  0.049676213    4368.4223    175.61986 
   32500  0.079027808     4368.267  0.038435112    4368.4239    175.62036 
   32600  0.069017262    4368.2713  0.036259175     4368.411    175.62015 
   32700  0.075721747    4368.2707  0.039832241     4368.424    175.62007 
   32800  0.082765064    4368.2685  0.029509221     4368.422    175.62037 
   32900  0.076268332    4368.2692  0.032934742    4368.4164    175.61984 
   33000  0.072176977    4368.2741  0.037192114    4368.4194    175.61932 
   33100  0.079072259    4368.2678  0.051023778    4368.4373    175.61962 
   33200  0.079582688    4368.2657  0.053142642    4368.4381    175.61996 
   33300  0.069677272    4368.2634  0.047482495    4368.4153    175.62026 
   33400  0.070511733    4368.2653  0.036281904    4368.4073    175.62044 
   33500   0.07333804    4368.2731  0.025282688    4368.4083    175.62079 
   33600  0.076302314    4368.2619  0.033433196    4368.4097    175.62041 
   33700  0.080352014    4368.2703  0.045489632    4368.4362    175.61997 
   33800  0.076743363    4368.2661  0.040728028    4368.4218    175.61968 
   33900  0.076531258    4368.2683  0.049635481    4368.4326    175.62107 
   34000   0.07965779     4368.272  0.042584048    4368.4339    175.61982 
   34100   0.07796344    4368.2673  0.042420927    4368.4266    175.62087 
   34200  0.072715727    4368.2702   0.04678135     4368.426    175.62054 
   34300  0.073333355    4368.2728  0.042477006    4368.4252     175.6197 
   34400  0.070734177    4368.2715  0.042488936      4368.42    175.62063 
   34500  0.072349142    4368.2697  0.039821782     4368.418    175.61988 
   34600  0.073928968    4368.2694  0.040183525    4368.4204    175.61948 
   34700  0.073641054    4368.2732  0.036738221    4368.4203    175.62038 
   34800   0.07200467    4368.2678  0.047217651     4368.423    175.61987 
   34900  0.055712671    4368.2699  0.060445843    4368.4138    175.61901 
   35000  0.079516982     4368.268  0.037179666    4368.4243    175.62019 
   35100  0.079701183    4368.2734  0.038366496    4368.4312    175.62038 
   35200  0.076518471    4368.2691    0.0439887    4368.4278     175.6193 
   35300  0.079239719    4368.2736  0.045010607    4368.4373     175.6201 
   35400  0.068724069    4368.2748  0.048595302    4368.4264    175.61996 
   35500  0.073470285    4368.2709  0.038861324    4368.4199    175.62075 
   35600  0.078890376    4368.2607  0.040084829     4368.419    175.62038 
   35700  0.071008662    4368.2671  0.033052504    4368.4065    175.62031 
   35800  0.067454796    4368.2658  0.039841765    4368.4067    175.62027 
   35900  0.075930225    4368.2624   0.04099246    4368.4172    175.62065 
   36000  0.078298048     4368.261  0.044350684    4368.4227    175.62031 
   36100  0.076069944      4368.27  0.036771479    4368.4208    175.62113 
   36200  0.076462382    4368.2685   0.03400567    4368.4171    175.62111 
   36300  0.073833057    4368.2668  0.028791314    4368.4063     175.6212 
   36400  0.059073508    4368.2687  0.034354422    4368.3916    175.61985 
   36500  0.074384901    4368.2684  0.034924878    4368.4148    175.62108 
   36600  0.074948335    4368.2653  0.044846969    4368.4224    175.62092 
   36700  0.078747517    4368.2657  0.031518024    4368.4152    175.62053 
   36800  0.070281143    4368.2713  0.040318566     4368.417    175.62095 
   36900  0.071738927    4368.2695  0.034313849    4368.4114    175.62022 
   37000  0.072802766    4368.2763  0.037248549    4368.4227     175.6197 
   37100   0.06905632    4368.2626  0.031577595    4368.3977    175.62026 
   37200  0.079263374      4368.27  0.037624563    4368.4264     175.6201 
   37300   0.06831497    4368.2691  0.039086429    4368.4106    175.61929 
   37400  0.073445908    4368.2676  0.038029827    4368.4157    175.61947 
   37500  0.077603232    4368.2662  0.045157407    4368.4277    175.61993 
   37600  0.071129017     4368.272  0.039282971    4368.4179    175.61999 
   37700  0.071839552     4368.273  0.032588346    4368.4133    175.62114 
   37800  0.073554133      4368.27  0.042719595     4368.423    175.61987 
   37900  0.073560826     4368.267   0.03933526    4368.4166    175.62064 
   38000  0.081263393    4368.2709  0.040722778    4368.4335    175.62022 
   38100  0.082463898    4368.2685  0.033763769    4368.4258    175.62003 
   38200  0.070262345    4368.2727  0.037439111    4368.4155      175.619 
   38300  0.080540157    4368.2707  0.041268841    4368.4327    175.62031 
   38400  0.084627699    4368.2729  0.034146042    4368.4339    175.61987 
   38500  0.063362137    4368.2692  0.040549004    4368.4047    175.61883 
   38600  0.065212436    4368.2713   0.03145257    4368.4005     175.6203 
   38700  0.081961571    4368.2707  0.041440084    4368.4349     175.6204 
   38800  0.077194474    4368.2709  0.041642921    4368.4282    175.62045 
   38900  0.070226441    4368.2721  0.032516769    4368.4099    175.61994 
   39000  0.086212202     4368.273  0.042855463    4368.4451    175.61947 
   39100  0.076937211    4368.2722  0.030932651    4368.4185    175.62078 
   39200  0.068175167    4368.2712  0.039349484    4368.4127    175.61922 
   39300  0.079212977    4368.2696  0.036479253    4368.4248     175.6196 
   39400  0.070417796    4368.2744  0.041300193    4368.4213    175.61975 
   39500  0.074936001    4368.2728  0.032069244    4368.4172     175.6208 
   39600  0.072702986    4368.2723   0.03570657     4368.417    175.62023 
   39700  0.065062625    4368.2721    0.0386007    4368.4082    175.61917 
   39800  0.055651319    4368.2741  0.037839935    4368.3953    175.61925 
   39900  0.069444934    4368.2728  0.041609722    4368.4185    175.62024 
   40000  0.080331452    4368.2721  0.037499604    4368.4301    175.62032 
   40100  0.079744925    4368.2729  0.034417326    4368.4269    175.62071 
   40200  0.069094756    4368.2662  0.036824506    4368.4065    175.62073 
   40300  0.072114161    4368.2741  0.042478072    4368.4247    175.62011 
   40400   0.07741685    4368.2748  0.031366443    4368.4222    175.61966 
   40500  0.080109818    4368.2692  0.036988133    4368.4263     175.6195 
   40600  0.076131995    4368.2666  0.039645069    4368.4203    175.62072 
   40700  0.072954643    4368.2681  0.047275093    4368.4247    175.62038 
   40800  0.074865789    4368.2737  0.041887519    4368.4278    175.61961 
   40900  0.070258837    4368.2724  0.041408488    4368.4192    175.61966 
   41000  0.066469478    4368.2756  0.040297643    4368.4155    175.61996 
   41100   0.07038114    4368.2726  0.048730736    4368.4268    175.62047 
   41200  0.074925912    4368.2655  0.041543858    4368.4193    175.61955 
   41300  0.073816927    4368.2669  0.046922351    4368.4245    175.61965 
   41400  0.079792989    4368.2728    0.0504468    4368.4428    175.61931 
   41500  0.078206125    4368.2675  0.037344362    4368.4221    175.62092 
   41600  0.077662922    4368.2688  0.044721217      4368.43     175.6201 
   41700  0.088128966    4368.2708  0.034826397    4368.4377    175.62022 
   41800  0.076958599    4368.2726  0.044904965    4368.4328    175.61933 
   41900  0.084065243    4368.2698  0.039169917     4368.435    175.62092 
   42000  0.073693349     4368.267  0.040311856    4368.4177    175.61974 
   42100  0.077228198    4368.2654  0.049732868    4368.4309    175.62048 
   42200  0.083860417    4368.2707  0.033777939    4368.4302     175.6205 
   42300  0.077641471    4368.2714    0.0351399    4368.4229    175.61974 
   42400  0.071350628    4368.2706   0.04811592    4368.4256     175.6194 
   42500  0.069376583     4368.273  0.041275367    4368.4183    175.62018 
   42600   0.07566823    4368.2691  0.036091494    4368.4186    175.62111 
   42700  0.082536641    4368.2721  0.029990968    4368.4258    175.62068 
   42800  0.077098588    4368.2612  0.041186795     4368.418    175.61969 
   42900  0.075007687    4368.2678  0.036280566    4368.4165    175.61975 
   43000  0.079866176    4368.2695  0.028433686    4368.4176    175.62014 
   43100  0.075218046    4368.2748  0.032162389    4368.4197    175.61985 
   43200  0.070435476    4368.2732  0.041220606      4368.42    175.62028 
   43300  0.073966939    4368.2733  0.036667612    4368.4208    175.61983 
   43400   0.07064507    4368.2714  0.029558022    4368.4069    175.62179 
   43500  0.072581041    4368.2648  0.040442836     4368.414    175.61977 
   43600  0.078544847    4368.2679  0.041004015    4368.4266    175.62128 
   43700  0.072749532    4368.2696  0.047012376    4368.4257    175.62075 
   43800  0.075669496     4368.263  0.037319675    4368.4138     175.6199 
   43900  0.068587168    4368.2714  0.039119842    4368.4134    175.62018 
   44000  0.079863599    4368.2677  0.033046261    4368.4204    175.62093 
   44100  0.077638786    4368.2696   0.03275271    4368.4188    175.61979 
   44200   0.07078139    4368.2643  0.026921714    4368.3973    175.62054 
   44300  0.076279759    4368.2708  0.036681871    4368.4218    175.62087 
   44400  0.072434332    4368.2647  0.044028845    4368.4173    175.62035 
   44500  0.073498463    4368.2707  0.036226725    4368.4171    175.61976 
   44600  0.070492525    4368.2648  0.037066218    4368.4075    175.62013 
   44700  0.065901688    4368.2667  0.027914538    4368.3934    175.62011 
   44800  0.071134812    4368.2707  0.030289611    4368.4076    175.62007 
   44900  0.077005897     4368.272  0.031431436    4368.4189     175.6203 
   45000  0.079490952    4368.2675   0.03243308    4368.4191    175.62074 
   45100  0.083272238    4368.2705  0.033537946    4368.4288    175.62013 
   45200  0.073003561    4368.2726  0.035419885    4368.4175    175.62011 
   45300  0.075367474    4368.2645  0.032456535    4368.4099    175.62102 
   45400  0.076531772    4368.2683  0.031672697    4368.4147     175.6197 
   45500  0.070023383    4368.2651  0.038279629    4368.4083       175.62 
   45600  0.063014613    4368.2718  0.048116656    4368.4144    175.62098 
   45700  0.065774259    4368.2669  0.036668871    4368.4022     175.6198 
   45800  0.067354681    4368.2708  0.032609262    4368.4043    175.62043 
   45900  0.070593068    4368.2682   0.03332345    4368.4073    175.62024 
   46000  0.073997946    4368.2712  0.041807539    4368.4239    175.62016 
   46100  0.066205032    4368.2717  0.031169074    4368.4021    175.61993 
   46200   0.07479847    4368.2711  0.037160383    4368.4204    175.62044 
   46300  0.072566678    4368.2661  0.045315987    4368.4202    175.62044 
   46400  0.065297271    4368.2697  0.040274976    4368.4078    175.62052 
   46500  0.076494837    4368.2674  0.053502069    4368.4356    175.61956 
   46600   0.07741096     4368.266  0.045576011    4368.4276    175.62018 
   46700   0.08626537    4368.2693  0.029266814    4368.4279    175.62086 
   46800  0.073295916    4368.2557   0.04463753    4368.4102    175.62039 
   46900   0.07081875     4368.267  0.045289711    4368.4185    175.62029 
   47000  0.080648053    4368.2703  0.029100454    4368.4203    175.62039 
   47100  0.072999738    4368.2622  0.041223154    4368.4129     175.6198 
   47200  0.076907252    4368.2685  0.044053749    4368.4279     175.6198 
   47300  0.082811785    4368.2655  0.033767477    4368.4234    175.61998 
   47400  0.077914747    4368.2671  0.038322035    4368.4222     175.6205 
   47500  0.075925729    4368.2683  0.047804916    4368.4299    175.62059 
   47600  0.073244536    4368.2692  0.042745914    4368.4217    175.61912 
   47700  0.081651553      4368.27  0.034446939    4368.4269    175.62111 
   47800  0.074526215    4368.2635  0.032692883    4368.4079    175.62061 
   47900  0.074715582    4368.2634  0.035505741    4368.4109    175.62007 
   48000  0.068168994    4368.2683  0.033615867    4368.4041    175.62006 
   48100  0.077710642    4368.2717  0.040289455    4368.4285    175.62043 
   48200  0.077915195    4368.2634  0.039345858    4368.4195    175.62153 
   48300  0.069730316    4368.2692  0.036288992      4368.41     175.6201 
   48400  0.071026284    4368.2668  0.032053136    4368.4054    175.61948 
   48500   0.06780012     4368.267  0.031277821    4368.3999    175.62055 
   48600  0.069622415    4368.2673   0.03495694    4368.4066    175.62039 
   48700    0.0754812    4368.2701  0.042033327    4368.4253    175.62126 
   48800  0.072882336    4368.2719  0.040267488    4368.4214    175.62058 
   48900  0.069876655    4368.2681  0.043598401    4368.4164    175.62019 
   49000  0.077798401    4368.2648  0.041690269    4368.4231    175.62038 
   49100  0.073657792    4368.2712  0.032852504    4368.4145    175.62033 
   49200   0.07190565    4368.2687  0.039394154    4368.4159    175.62101 
   49300  0.066715502    4368.2567  0.046547268    4368.4032    175.62106 
   49400  0.071536152    4368.2596  0.030838339    4368.3977    175.62029 
   49500  0.067906084    4368.2632  0.040919259    4368.4059     175.6207 
   49600   0.07387951    4368.2633  0.034157946    4368.4082    175.62059 
   49700  0.071354502    4368.2625  0.034847185    4368.4043     175.6209 
   49800  0.071514254    4368.2687  0.040734923    4368.4167      175.622 
   49900   0.07413434    4368.2615  0.037989994    4368.4106    175.62105 
   50000  0.080517005    4368.2626  0.039247628    4368.4225    175.61991 
   50100  0.070130909     4368.264  0.036015112    4368.4051    175.62072 
   50200  0.070110951    4368.2671  0.041190289    4368.4133    175.62018 
   50300  0.072981734    4368.2601  0.035977076    4368.4055    175.62076 
   50400  0.077252444    4368.2646  0.039478316    4368.4199    175.62035 
   50500  0.072648342    4368.2727  0.034233799    4368.4158    175.62041 
   50600  0.066780145    4368.2653  0.048769676    4368.4142    175.62062 
   50700  0.081043473    4368.2712  0.043727145    4368.4364    175.62023 
   50800  0.078321497    4368.2657  0.037084851    4368.4202    175.61967 
   50900  0.076230523    4368.2614  0.037921497    4368.4136    175.62108 
   51000  0.076878879    4368.2658  0.040317218    4368.4214    175.62071 
   51100  0.067207056    4368.2657  0.039907038    4368.4063    175.62091 
   51200  0.077713438    4368.2722  0.042807681    4368.4315    175.61992 
   51300  0.077116604     4368.267  0.034849057    4368.4174    175.62103 
   51400  0.081455576    4368.2672  0.043538708    4368.4328    175.62046 
   51500  0.093550935    4368.2693   0.03909357    4368.4486    175.62174 
   51600  0.072596488    4368.2706  0.047291419    4368.4267    175.61966 
   51700  0.079896495    4368.2673  0.040930473     4368.428    175.62149 
   51800  0.069616223    4368.2652  0.043048928    4368.4126     175.6203 
   51900  0.069542522    4368.2668  0.035636696    4368.4066    175.62093 
   52000  0.063207922    4368.2687  0.040027483    4368.4035     175.6198 
   52100  0.066316326    4368.2673  0.042382659    4368.4091    175.62047 
   52200  0.076772865    4368.2609  0.040023304     4368.416    175.61969 
   52300  0.078464128     4368.271  0.040950061    4368.4296    175.62006 
   52400   0.07516494     4368.268  0.040937072    4368.4216    175.62013 
   52500  0.080433487    4368.2678  0.029591461    4368.4179    175.62054 
   52600  0.079990902    4368.2679  0.042041957    4368.4298    175.61884 
   52700  0.079905523    4368.2677  0.045881946    4368.4334       175.62 
   52800  0.089747687    4368.2668  0.038720399    4368.4401    175.62065 
   52900  0.083941514    4368.2683  0.040164995    4368.4342    175.62102 
   53000  0.081676358    4368.2735  0.043595525    4368.4395    175.61994 
   53100  0.080505062      4368.27  0.040140688    4368.4308    175.62056 
   53200  0.071200027    4368.2689  0.043909473    4368.4196    175.61994 
   53300  0.081393637    4368.2711  0.035304689    4368.4284    175.61975 
   53400  0.079955742    4368.2678  0.035954076    4368.4236    175.62013 
   53500  0.075171229    4368.2565  0.048058858    4368.4172    175.61948 
   53600   0.06928336    4368.2749  0.045227631     4368.424    175.62017 
   53700  0.068483574    4368.2681  0.032526765    4368.4033    175.61976 
   53800  0.069558395    4368.2731  0.040544798    4368.4179    175.61972 
   53900  0.079114949    4368.2722  0.035684107    4368.4265    175.62026 
   54000  0.070491819    4368.2707  0.036834107    4368.4131    175.62079 
   54100  0.068252659    4368.2655  0.028933715    4368.3967    175.62061 
   54200  0.066430994    4368.2574  0.032767336    4368.3897    175.62064 
   54300  0.081261648    4368.2659  0.031420009    4368.4192    175.61971 
   54400  0.077209237    4368.2715  0.033558207    4368.4208    175.62062 
   54500  0.074429577    4368.2603  0.043962408    4368.4159    175.62045 
   54600  0.082852896    4368.2721  0.037141582    4368.4334    175.62088 
   54700  0.080036873    4368.2726  0.041196522    4368.4337    175.61953 
   54800  0.087561828    4368.2684   0.03865581    4368.4383     175.6207 
   54900  0.077122956    4368.2713  0.037163393     4368.424    175.62065 
   55000   0.07865408    4368.2634  0.036069415    4368.4174    175.62006 
   55100  0.081066277    4368.2717  0.029853569    4368.4231    175.62034 
   55200  0.080817036     4368.271    0.0328116    4368.4249    175.62104 
   55300  0.089787702    4368.2683  0.028160101     4368.431    175.62042 
   55400  0.076374782     4368.271  0.037359474    4368.4229    175.62113 
   55500  0.066996165     4368.269  0.034365719    4368.4038    175.61975 
   55600  0.072540903    4368.2665  0.034808328      4368.41     175.6198 
   55700  0.069957967      4368.27    0.0386528    4368.4135    175.61957 
   55800   0.07543259    4368.2666  0.043292108    4368.4229    175.62037 
   55900  0.076365041    4368.2696  0.037828162    4368.4219    175.62049 
   56000  0.081938521    4368.2666  0.039962528    4368.4294     175.6207 
   56100  0.072882768    4368.2669  0.033089096    4368.4092    175.62101 
   56200  0.079482428    4368.2727  0.037319963    4368.4291    175.61972 
   56300  0.079672905    4368.2663  0.042335811    4368.4281    175.62136 
   56400  0.080781273    4368.2616  0.048916422    4368.4316    175.62039 
   56500  0.081793945    4368.2672  0.037248717     4368.427    175.62143 
   56600   0.07838668    4368.2708  0.040669951    4368.4289    175.61995 
   56700   0.06887892    4368.2697  0.043045923     4368.416    175.61948 
   56800  0.066438719    4368.2708  0.032723283    4368.4031    175.62029 
   56900  0.068414102    4368.2711   0.03209613    4368.4058    175.62099 
   57000  0.073032761     4368.275  0.035445975      4368.42    175.62078 
   57100  0.073690917    4368.2724  0.037176759      4368.42    175.62036 
   57200   0.07792955    4368.2731  0.035813877    4368.4257    175.62018 
   57300   0.07319865    4368.2649  0.034883015    4368.4095    175.62058 
   57400  0.086877609    4368.2707  0.038842236    4368.4397    175.62051 
   57500  0.076709546    4368.2623  0.038928709    4368.4162    175.62066 
   57600  0.072405759    4368.2682  0.044448138    4368.4212     175.6205 
   57700  0.074420739    4368.2697  0.039761897     4368.421    175.61969 
   57800  0.076049566    4368.2638   0.04294764    4368.4207    175.62019 
   57900  0.079014356    4368.2687  0.048342419    4368.4354    175.62042 
   58000  0.080635809    4368.2644  0.040594896    4368.4258    175.61939 
   58100  0.076294096    4368.2702  0.035761252    4368.4203    175.61954 
   58200  0.061550861    4368.2698  0.036481601    4368.3985    175.62015 
   58300  0.080838581    4368.2709  0.039088149    4368.4311    175.62168 
   58400  0.084500771    4368.2738  0.036656658    4368.4371    175.61978 
   58500  0.083954519    4368.2661   0.04299772     4368.435    175.62039 
   58600  0.078923565     4368.257  0.031632356     4368.407    175.62071 
   58700  0.086144419    4368.2666  0.033728595    4368.4295    175.62077 
   58800  0.073755213    4368.2682  0.044834629    4368.4236    175.62027 
   58900  0.080999767    4368.2698  0.038491162    4368.4297    175.61911 
   59000  0.066451104    4368.2679  0.036215361    4368.4037    175.62011 
   59100  0.061777196    4368.2757  0.032090483    4368.4003    175.62017 
   59200  0.071778702    4368.2647  0.033625705    4368.4059    175.61986 
   59300   0.06318635    4368.2689  0.033654221    4368.3972    175.62013 
   59400   0.06912932    4368.2689   0.02974953    4368.4022    175.62024 
   59500  0.074238681    4368.2654  0.033539159    4368.4102    175.62103 
   59600    0.0691943     4368.272  0.026602203    4368.4024     175.6201 
   59700  0.062421917    4368.2654  0.031922782    4368.3909    175.62031 
   59800  0.067358064    4368.2665  0.036593186     4368.404    175.62035 
   59900  0.066324745    4368.2674  0.030987494    4368.3978    175.62018 
   60000   0.07126162    4368.2718  0.029270774    4368.4079    175.62058 
   60100  0.069881008    4368.2656  0.032297244    4368.4026    175.62039 
   60200  0.077021235     4368.264  0.033807255    4368.4133    175.62096 
   60300  0.084831788    4368.2635  0.031150772    4368.4218    175.62108 
   60400  0.086747695    4368.2707  0.033646404    4368.4344     175.6208 
   60500  0.083441137    4368.2699  0.042448781    4368.4374    175.62011 
   60600  0.095821682    4368.2698  0.045086328    4368.4585    175.62047 
   60700  0.079717409    4368.2659   0.05184945    4368.4373     175.6208 
   60800   0.07791596    4368.2684  0.035020578    4368.4202    175.62042 
   60900  0.083009534    4368.2665  0.036830314    4368.4277    175.62116 
   61000  0.073704753     4368.274  0.034740787    4368.4192     175.6199 
   61100    0.0822652    4368.2695  0.041482346    4368.4342    175.62122 
   61200  0.079164494    4368.2695  0.046469146    4368.4346    175.62041 
   61300  0.080956653    4368.2728  0.038152891    4368.4323     175.6209 
   61400  0.066765203     4368.268  0.039812581    4368.4078     175.6208 
   61500  0.071460274     4368.272  0.033784095    4368.4129    175.62086 
   61600  0.076002256    4368.2675   0.03442443    4368.4159    175.62113 
   61700   0.07514179    4368.2638  0.045080869    4368.4215    175.62001 
   61800  0.077779905    4368.2668  0.041343284    4368.4247    175.61942 
   61900  0.078739881    4368.2686  0.045096213    4368.4317    175.62011 
   62000  0.075474233    4368.2618  0.041830775    4368.4168    175.62188 
   62100   0.08149875    4368.2662   0.03576516    4368.4242    175.62064 
   62200   0.07450557    4368.2627  0.039321209    4368.4137    175.62017 
   62300   0.07821486    4368.2614  0.032386613    4368.4111    175.62097 
   62400  0.073679123    4368.2701  0.032820809    4368.4134    175.62165 
   62500  0.067800743     4368.268  0.035499974    4368.4051    175.62028 
   62600  0.075151333    4368.2733  0.034556796    4368.4205    175.62086 
   62700  0.075326456      4368.27  0.042035074    4368.4249    175.61919 
   62800  0.071200848    4368.2702  0.032885093    4368.4098    175.61942 
   62900  0.069521503    4368.2686  0.033663619    4368.4065    175.61974 
   63000  0.064649831     4368.272  0.030109783     4368.399    175.61963 
   63100   0.06271591    4368.2661  0.043281946    4368.4034     175.6215 
   63200  0.065191969    4368.2723  0.041491732    4368.4115    175.61982 
   63300   0.07692211    4368.2724  0.038556514    4368.4263    175.62122 
   63400  0.076779638    4368.2747  0.033617927    4368.4234    175.62056 
   63500  0.083865288    4368.2667  0.029617393     4368.422    175.61979 
   63600  0.072972587    4368.2702  0.035492041    4368.4151    175.62087 
   63700  0.080440772     4368.265  0.039818917    4368.4254    175.61924 
   63800  0.069792678    4368.2748  0.042498724    4368.4219    175.62008 
   63900  0.066998583    4368.2729  0.043172382    4368.4165    175.61953 
   64000  0.067059513    4368.2702  0.036618149    4368.4073    175.61936 
   64100  0.067858086    4368.2611  0.033919885    4368.3967    175.62081 
   64200  0.072119217    4368.2719  0.035926009    4368.4159    175.62104 
   64300  0.072487466    4368.2741   0.03037362    4368.4131    175.62095 
   64400  0.073383054    4368.2655  0.031572497     4368.407    175.62015 
   64500  0.075646365    4368.2714  0.033317989    4368.4181    175.62116 
   64600  0.067657827    4368.2634  0.039815068    4368.4046    175.62153 
   64700  0.088878553    4368.2642  0.035609412     4368.433    175.62122 
   64800  0.076592173    4368.2665  0.033940103    4368.4152    175.62144 
   64900  0.070421633    4368.2591  0.035023254    4368.3997     175.6211 
   65000  0.071153462    4368.2624  0.040384114    4368.4094    175.61989 
   65100  0.079423893    4368.2612  0.035219719    4368.4155    175.62115 
   65200  0.064418844    4368.2635  0.037145883    4368.3972    175.62084 
   65300  0.070763278    4368.2694  0.042212294    4368.4177    175.62046 
   65400   0.07520929    4368.2598  0.042265332    4368.4148    175.62024 
   65500  0.076539583    4368.2634  0.038745356    4368.4169    175.61942 
   65600    0.0766717    4368.2697  0.040014624    4368.4246    175.62185 
   65700  0.071855247    4368.2649  0.036492725    4368.4091    175.62153 
   65800  0.077089961    4368.2713  0.039111332    4368.4259    175.61901 
   65900  0.081905823     4368.272  0.025555774    4368.4204    175.62003 
   66000  0.076752341    4368.2708  0.035775763    4368.4216    175.62044 
   66100  0.082385886     4368.266  0.036043698    4368.4256    175.62049 
   66200  0.063781857    4368.2628  0.027002857    4368.3854    175.62117 
   66300  0.071572929    4368.2671  0.033906191    4368.4082    175.62023 
   66400  0.075692991    4368.2639  0.035564623    4368.4129    175.62155 
   66500  0.077610095    4368.2626  0.051361555    4368.4303    175.61948 
   66600  0.080589064    4368.2673   0.04490521     4368.433    175.62061 
   66700  0.070079805    4368.2698  0.047891047    4368.4228    175.61961 
   66800   0.08344429    4368.2682  0.039842241    4368.4331    175.62051 
   66900  0.077112179    4368.2684  0.037757716    4368.4218    175.62101 
   67000  0.076362152    4368.2739  0.037694565    4368.4261    175.62006 
   67100  0.068664451     4368.266  0.042893571    4368.4118    175.61974 
   67200  0.072143048    4368.2635  0.041230981    4368.4129    175.61989 
   67300  0.077642968    4368.2709  0.044874524    4368.4321    175.62104 
   67400  0.085524033    4368.2626  0.049198514    4368.4399     175.6206 
   67500  0.085588987    4368.2675  0.039383073    4368.4352    175.62017 
   67600  0.083388275    4368.2684  0.043709152    4368.4371    175.62046 
   67700  0.080893389     4368.272  0.036169451    4368.4294    175.62078 
   67800  0.079412116     4368.264  0.031913983    4368.4149     175.6209 
   67900  0.072818887    4368.2673  0.035354645    4368.4118    175.62223 
   68000  0.079636155    4368.2686  0.041521088    4368.4295    175.62079 
   68100  0.076402706    4368.2672   0.04016995    4368.4219    175.61984 
   68200  0.077596198    4368.2691  0.043655198    4368.4291    175.62068 
   68300  0.079923679     4368.272  0.041466328    4368.4333    175.62089 
   68400  0.084097908    4368.2665  0.046832118    4368.4394    175.62062 
   68500  0.086917933     4368.271  0.040588063    4368.4419    175.62001 
   68600  0.080497801    4368.2663  0.046625589    4368.4335    175.62075 
   68700  0.089831218    4368.2603  0.037317478    4368.4322    175.62022 
   68800  0.078156521    4368.2704  0.040199108    4368.4277    175.62037 
   68900   0.08019278    4368.2698  0.046625783    4368.4367    175.62093 
   69000  0.072916727    4368.2681  0.040732643    4368.4181     175.6197 
   69100  0.076079317    4368.2705  0.033371455    4368.4179     175.6201 
   69200   0.07633134    4368.2711  0.047807559    4368.4334    175.62094 
   69300  0.080719897    4368.2686  0.044598848    4368.4342    175.61981 
   69400  0.074615912    4368.2656  0.046983325    4368.4244    175.62178 
   69500  0.078857239     4368.272  0.044649875    4368.4348    175.62121 
   69600  0.076640857    4368.2706  0.033539162     4368.419    175.62067 
   69700  0.078919134    4368.2681  0.045862387    4368.4322    175.62036 
   69800  0.082631244    4368.2662  0.034593233    4368.4246    175.62119 
   69900  0.090239569    4368.2631  0.043368926    4368.4417    175.62182 
   70000  0.086789881    4368.2672  0.040408287    4368.4377    175.62077 
   70100  0.076621147    4368.2627  0.039095196    4368.4167    175.61967 
   70200  0.083550363    4368.2567  0.033969274    4368.4159    175.62146 
   70300  0.073896977    4368.2723  0.036041671    4368.4191    175.62067 
   70400  0.077925831    4368.2713  0.033367483    4368.4215    175.62106 
   70500  0.068089046    4368.2651  0.043037203    4368.4102    175.62043 
   70600   0.06659078    4368.2618  0.041394669     4368.403    175.62019 
   70700  0.073574224    4368.2697  0.033656344    4368.4136    175.62091 
   70800  0.070425693    4368.2699  0.042706397    4368.4181    175.62007 
   70900  0.089905001    4368.2708  0.031017511    4368.4366    175.62047 
   71000  0.080934276    4368.2656  0.033802108    4368.4207     175.6207 
   71100  0.076387689    4368.2657  0.038760499    4368.4189    175.62133 
   71200  0.074759209    4368.2716  0.040743006    4368.4244    175.62155 
   71300   0.07790889    4368.2626  0.039417465    4368.4188    175.62105 
   71400   0.07304639    4368.2661  0.047304865    4368.4229    175.61885 
   71500  0.065826626    4368.2633  0.041883393    4368.4039       175.62 
   71600  0.062853706    4368.2693  0.036940132    4368.4004    175.62017 
   71700  0.065468722    4368.2708  0.033410511    4368.4023    175.62041 
   71800  0.069542161    4368.2647  0.035273832    4368.4042    175.62123 
   71900  0.061466622    4368.2667  0.043490412    4368.4024    175.62101 
   72000  0.071706507     4368.267  0.031685276    4368.4062    175.62131 
   72100  0.074589367    4368.2695  0.038614788    4368.4199    175.62033 
   72200  0.070225707    4368.2668  0.046866827    4368.4189    175.61964 
   72300  0.076626995    4368.2646  0.043273981    4368.4227    175.62044 
   72400   0.07938054    4368.2707  0.038557367    4368.4283    175.61987 
   72500  0.076713769    4368.2697  0.033424949    4368.4181    175.62022 
   72600  0.080700982    4368.2721  0.037603864    4368.4306    175.61993 
   72700  0.075466059    4368.2672  0.045319577    4368.4256    175.62077 
   72800  0.082303658    4368.2707  0.043977685     4368.438    175.61996 
   72900  0.078924113    4368.2629  0.055091662    4368.4363    175.61966 
   73000  0.077471529     4368.269  0.044102543    4368.4292    175.62057 
   73100  0.077037575    4368.2641  0.045003546    4368.4245    175.62076 
   73200  0.080932953    4368.2729  0.033484002    4368.4277    175.62039 
   73300  0.079383042    4368.2696   0.04380948    4368.4324    175.62041 
   73400  0.077566837    4368.2654  0.037594717    4368.4193    175.62031 
   73500  0.072747152    4368.2677  0.047432802    4368.4241    175.62015 
   73600  0.075882263    4368.2621  0.038272046    4368.4141    175.62035 
   73700  0.075026486    4368.2697  0.042462437    4368.4246    175.62056 
   73800  0.072429415    4368.2654  0.036147124    4368.4101    175.62093 
   73900   0.06575318    4368.2684  0.034533003    4368.4015    175.61989 
   74000  0.067210549    4368.2628  0.034474247    4368.3981    175.62072 
   74100  0.064692344    4368.2734  0.037613588     4368.408    175.62059 
   74200  0.073852307    4368.2704  0.034638992    4368.4157    175.62052 
   74300  0.074161203    4368.2707  0.030320627    4368.4122    175.62122 
   74400  0.065460541    4368.2694  0.029166804    4368.3967    175.62128 
   74500   0.06973863    4368.2684  0.026608062    4368.3995    175.62062 
   74600  0.070016134    4368.2666  0.036597675    4368.4081    175.61968 
   74700  0.084404543    4368.2694  0.033807538    4368.4297    175.62029 
   74800  0.077170682    4368.2674  0.041799846    4368.4249    175.62048 
   74900  0.075991676      4368.27  0.039380103    4368.4233    175.62064 
   75000  0.070294592    4368.2709  0.050000255    4368.4262     175.6186 
   75100  0.074620495    4368.2702  0.041953174     4368.424    175.62057 
   75200  0.080229125    4368.2653  0.043009154    4368.4286    175.62094 
   75300  0.074704255    4368.2694  0.036711223     4368.418    175.61995 
   75400  0.077671928    4368.2741  0.040972673    4368.4315    175.61982 
   75500  0.077770258    4368.2744  0.037315646    4368.4283    175.62001 
   75600  0.073563618    4368.2659   0.05129787    4368.4274    175.61917 
   75700  0.081333109    4368.2694  0.030722932     4368.422    175.62063 
   75800  0.086580442    4368.2699  0.034066367    4368.4337    175.62017 
   75900  0.070722148    4368.2719  0.052014017      4368.43    175.61895 
   76000  0.072818433     4368.274  0.047206398    4368.4304    175.62075 
   76100  0.074258402    4368.2694  0.038052066    4368.4187    175.62141 
   76200  0.073117548    4368.2638   0.03501296    4368.4084    175.62057 
   76300  0.080714166    4368.2698  0.031053789    4368.4219    175.62026 
   76400  0.073852932    4368.2657  0.029145761    4368.4055    175.62072 
   76500  0.073965346    4368.2627    0.0345736    4368.4082    175.62047 
   76600  0.075318392    4368.2662  0.031598927    4368.4107    175.62069 
   76700   0.06858817    4368.2669   0.03196544    4368.4017    175.62071 
   76800  0.071067279    4368.2646  0.034267722    4368.4054    175.62105 
   76900   0.07306429    4368.2613  0.037193645     4368.408     175.6207 
   77000  0.083307985    4368.2701  0.031320348    4368.4263    175.62138 
   77100  0.079162553     4368.269  0.030126792    4368.4178    175.62018 
   77200  0.069356127    4368.2623  0.035576222    4368.4018     175.6201 
   77300  0.080756254    4368.2696  0.028819101    4368.4195    175.62094 
   77400  0.070165194    4368.2648  0.032336341    4368.4023    175.62037 
   77500  0.074859061    4368.2702  0.042773938    4368.4251     175.6201 
   77600  0.066803597    4368.2629   0.04120295    4368.4042    175.61963 
   77700  0.071693323    4368.2718  0.036188364    4368.4154     175.6214 
   77800  0.069549799    4368.2695  0.031363419    4368.4051    175.62116 
   77900  0.066388196     4368.264  0.046570319    4368.4101    175.62276 
   78000  0.086511626    4368.2664  0.034645962    4368.4307    175.62121 
   78100   0.07691597    4368.2689  0.035617043    4368.4198    175.62057 
   78200  0.078568511    4368.2656   0.03794849    4368.4213    175.62016 
   78300  0.072674386    4368.2671  0.037716999    4368.4138    175.62036 
   78400  0.072233272     4368.268  0.031428869    4368.4077    175.62004 
   78500  0.070407027      4368.27  0.043580211    4368.4191    175.61976 
   78600  0.059557473     4368.268   0.03738957    4368.3946       175.62 
   78700  0.067385038    4368.2613  0.035260673    4368.3976    175.62077 
   78800   0.08169775    4368.2651  0.036096532    4368.4237    175.62149 
   78900  0.080591816    4368.2657  0.042547665     4368.429     175.6205 
   79000  0.084583341    4368.2724  0.037991139    4368.4372    175.62001 
   79100  0.079020591    4368.2671  0.037528436    4368.4231    175.62078 
   79200  0.072686147    4368.2589  0.036690862    4368.4046    175.62069 
   79300  0.066930985    4368.2688   0.03022024    4368.3993    175.62032 
   79400  0.069896271    4368.2653  0.034896246     4368.405    175.62129 
   79500  0.066771417    4368.2568  0.039997522    4368.3968    175.62103 
   79600  0.074329719    4368.2669  0.031991204    4368.4103    175.62118 
   79700  0.076533516    4368.2616   0.03231448    4368.4086    175.62145 
   79800  0.079736672    4368.2673  0.039166344     4368.426    175.62064 
   79900  0.063526027    4368.2667  0.044774575    4368.4067    175.61985 
   80000  0.070254443    4368.2634  0.044078858    4368.4128    175.62114 
   80100  0.073699213    4368.2648   0.03558849    4368.4109    175.62112 
   80200  0.078716896    4368.2609  0.040401473    4368.4193    175.62061 
   80300  0.078835859    4368.2673  0.027335475    4368.4128    175.62091 
   80400  0.072221218     4368.273  0.031260828    4368.4125    175.61998 
   80500  0.069193845    4368.2708  0.031163687    4368.4057    175.62068 
   80600  0.063688812      4368.27  0.033697677    4368.3992    175.62065 
   80700  0.068969523    4368.2708  0.032192968    4368.4063    175.62037 
   80800  0.076337582    4368.2672  0.044255108    4368.4259    175.62064 
   80900  0.071137297    4368.2656  0.049590662    4368.4218    175.61946 
   81000  0.079720111    4368.2615  0.031429283    4368.4125    175.62057 
   81100  0.082439883    4368.2697  0.041969511    4368.4352    175.62022 
   81200  0.091590067    4368.2708   0.03973577    4368.4478    175.62149 
   81300  0.076137741    4368.2673  0.034703761    4368.4161    175.61978 
   81400  0.076236628    4368.2694  0.039960257    4368.4237    175.61969 
   81500  0.074936146    4368.2677  0.034080844    4368.4141    175.62034 
   81600  0.072755478    4368.2641  0.042622568    4368.4158    175.62038 
   81700  0.077441379    4368.2711  0.028849136     4368.416    175.62052 
   81800  0.060167521    4368.2687  0.034835159    4368.3937    175.62081 
   81900  0.073884239     4368.267  0.034981404    4368.4127    175.62081 
   82000  0.072262592    4368.2702  0.045248685    4368.4237    175.62029 
   82100  0.076287411    4368.2666  0.034920768    4368.4158    175.62053 
   82200  0.075408569    4368.2707  0.035748065    4368.4194    175.62095 
   82300  0.063417512    4368.2659  0.038707826    4368.3996    175.62015 
   82400  0.073991175    4368.2664  0.031847325    4368.4091    175.61966 
   82500  0.071470365    4368.2693  0.034209762    4368.4106     175.6205 
   82600  0.078717478    4368.2671  0.037578416    4368.4227    175.62027 
   82700  0.077064711    4368.2668  0.031259793    4368.4136    175.62054 
   82800  0.065896972    4368.2676  0.032841752    4368.3992    175.61965 
   82900  0.071149568    4368.2691  0.030410019    4368.4061    175.62033 
   83000  0.063638189    4368.2692  0.036913177    4368.4015    175.61994 
   83100  0.082209304    4368.2663  0.039027808    4368.4285    175.62064 
   83200  0.066437091    4368.2645  0.040160286    4368.4042    175.62013 
   83300  0.080862315    4368.2663  0.048436672     4368.436    175.62018 
   83400  0.073433575    4368.2699   0.03894875    4368.4189    175.62022 
   83500  0.085409466    4368.2683   0.03693038    4368.4333    175.62078 
   83600  0.077525796    4368.2653  0.040529557     4368.422    175.62096 
   83700  0.080535903    4368.2686  0.050121709    4368.4395    175.62095 
   83800  0.082767927    4368.2651   0.03220247    4368.4214    175.62049 
   83900  0.070779074    4368.2675   0.04685064    4368.4204    175.62081 
   84000  0.069272344    4368.2667   0.03028792    4368.4008    175.62046 
   84100  0.066895746    4368.2674  0.040064181    4368.4077    175.62021 
   84200  0.072459792    4368.2705  0.043899469     4368.423    175.62016 
   84300  0.079093565    4368.2727  0.035350609    4368.4266    175.62028 
   84400  0.084227562     4368.267  0.037244064    4368.4304    175.62046 
   84500  0.074656294    4368.2714  0.036490979    4368.4198    175.62071 
   84600   0.07625862    4368.2676  0.034155221    4368.4161    175.62109 
   84700  0.080178957    4368.2716  0.043182526     4368.435    175.62033 
   84800  0.072185399    4368.2704  0.043886347    4368.4225    175.62048 
   84900  0.084071038    4368.2724  0.033917872    4368.4323    175.62145 
   85000  0.072384986    4368.2669  0.051993029    4368.4274    175.62011 
   85100  0.075017992    4368.2677  0.040525015    4368.4207    175.61981 
   85200   0.08206467    4368.2638  0.037508554    4368.4243    175.62098 
   85300  0.081246225    4368.2647  0.042640351    4368.4291     175.6204 
   85400  0.080133339    4368.2663  0.043176064    4368.4296    175.61974 
   85500  0.079659532    4368.2752   0.03765939    4368.4323    175.62047 
   85600   0.07687871    4368.2719  0.039234586    4368.4264    175.62084 
   85700  0.074612484    4368.2662  0.032162846    4368.4102    175.62048 
   85800  0.085033941    4368.2653  0.035614343    4368.4284    175.62014 
   85900  0.072563319    4368.2723  0.039709759    4368.4208    175.62044 
   86000  0.078250008    4368.2656  0.038276642    4368.4211    175.62091 
   86100  0.074745681    4368.2677  0.051803731    4368.4315    175.62029 
   86200  0.077543169    4368.2704  0.039506873    4368.4261    175.61977 
   86300  0.075344344     4368.267  0.046753248    4368.4267    175.62014 
   86400  0.084293122    4368.2732  0.033692875    4368.4332     175.6209 
   86500  0.078231607    4368.2717  0.036023915    4368.4249    175.61943 
   86600  0.073958779     4368.265  0.035923891    4368.4118    175.62021 
   86700   0.07990739      4368.27  0.028967712    4368.4188    175.62051 
   86800  0.077231364      4368.27  0.038376586    4368.4241    175.62027 
   86900  0.066431834    4368.2627  0.049828736    4368.4121    175.62005 
   87000  0.076602451    4368.2662  0.044770786    4368.4258     175.6205 
   87100  0.083515749    4368.2704  0.044231984    4368.4398    175.62061 
   87200  0.072036805    4368.2598  0.045480612    4368.4132    175.62066 
   87300  0.088311499    4368.2633  0.034944878    4368.4306    175.62069 
   87400  0.090977722    4368.2706  0.031528948    4368.4385    175.62092 
   87500  0.067951457    4368.2699  0.039428428    4368.4112    175.62108 
   87600  0.071869677    4368.2687  0.033407233    4368.4099    175.62043 
   87700  0.059579613    4368.2633  0.034804393    4368.3875    175.62048 
   87800   0.07317882    4368.2686   0.03756826    4368.4159    175.62105 
   87900  0.084577972    4368.2687  0.033670739    4368.4291    175.62114 
   88000  0.083313042    4368.2639  0.031136417    4368.4199    175.62036 
   88100  0.075451948    4368.2684  0.032644732    4368.4142    175.62139 
   88200  0.076389223    4368.2675  0.041603178    4368.4236     175.6201 
   88300  0.070814839    4368.2657   0.03827954    4368.4101    175.62039 
   88400  0.072572433    4368.2617  0.031687824    4368.4022    175.62126 
   88500  0.064154082    4368.2637  0.032957014    4368.3928    175.62091 
   88600    0.0604686    4368.2646  0.038623525    4368.3939    175.62015 
   88700  0.075647517    4368.2694  0.028196183     4368.411    175.62072 
   88800   0.07533181    4368.2679  0.033135401     4368.414    175.62064 
   88900  0.074301236    4368.2675  0.038212518    4368.4171    175.62037 
   89000  0.086280114    4368.2626  0.043229667    4368.4352    175.62055 
   89100  0.083296716    4368.2718  0.049591426    4368.4463    175.61923 
   89200  0.077842475      4368.27   0.04241534    4368.4291    175.62055 
   89300  0.085128577    4368.2624  0.036993017     4368.427    175.62158 
   89400  0.078637024    4368.2643  0.033890027     4368.416    175.62071 
   89500  0.073286122    4368.2596  0.033210809    4368.4026    175.62186 
   89600  0.071864083    4368.2693  0.042165859    4368.4191    175.62016 
   89700  0.076572278    4368.2638  0.033177973    4368.4117    175.62043 
   89800  0.078776245     4368.263  0.032492218    4368.4136    175.62091 
   89900  0.079127591    4368.2655  0.034485378    4368.4186    175.62086 
   90000  0.065148857    4368.2652  0.034940489    4368.3978    175.62082 
   90100  0.071147645    4368.2661  0.032020122    4368.4048    175.62016 
   90200  0.077650985    4368.2665  0.043753086    4368.4267    175.62046 
   90300  0.081073896    4368.2684  0.045800196    4368.4357    175.62044 
   90400  0.070691953    4368.2699  0.041050339    4368.4169    175.61945 
   90500  0.073340844     4368.259  0.051198348    4368.4201    175.62074 
   90600  0.080779224    4368.2615  0.044118313    4368.4267    175.62118 
   90700  0.073963014    4368.2633  0.057804213    4368.4319    175.62045 
   90800  0.081649925    4368.2665   0.05246905    4368.4414    175.61954 
   90900  0.086334301    4368.2687  0.039049984    4368.4372    175.62037 
   91000  0.082528685     4368.265   0.03808408    4368.4268    175.62117 
   91100  0.071807097    4368.2634  0.037019661     4368.408    175.62137 
   91200  0.067984154    4368.2698  0.037172106    4368.4088    175.62113 
   91300  0.072971035     4368.261  0.044855578    4368.4152    175.62041 
   91400  0.078056989    4368.2619  0.039256661    4368.4182    175.62083 
   91500  0.067194732    4368.2668  0.043729357    4368.4113    175.62025 
   91600  0.079520743    4368.2629  0.037851018    4368.4199    175.62129 
   91700  0.082466926    4368.2608  0.036815569    4368.4212    175.62018 
   91800  0.075042131    4368.2635  0.041976697     4368.418    175.62023 
   91900  0.074065855    4368.2629  0.038579191    4368.4125    175.61984 
   92000  0.066307133    4368.2554  0.030597697    4368.3854    175.62132 
   92100  0.067218294    4368.2638  0.031835504    4368.3964    175.62077 
   92200  0.071108567    4368.2676  0.043303068    4368.4175    175.62105 
   92300  0.078595413    4368.2674  0.031155033    4368.4164    175.62131 
   92400  0.072089906    4368.2624  0.033070426    4368.4035    175.62085 
   92500  0.070129267      4368.27  0.037932453    4368.4131    175.62008 
   92600  0.075563651    4368.2679  0.038366263    4368.4196    175.62019 
   92700  0.083861236    4368.2672   0.02945693    4368.4223    175.62155 
   92800  0.081684599    4368.2656  0.028492746    4368.4165    175.62081 
   92900  0.089042021    4368.2714   0.03141722    4368.4362    175.62128 
   93000  0.087496077    4368.2616  0.027704204    4368.4205    175.62103 
   93100  0.080187864    4368.2667  0.033362599    4368.4203    175.62032 
   93200  0.076782461    4368.2652  0.032450283    4368.4127    175.62072 
   93300  0.083872134     4368.272  0.033857977    4368.4316    175.61981 
   93400  0.081498311    4368.2612  0.042475885    4368.4258    175.62066 
   93500  0.078131412    4368.2682  0.035926933    4368.4212    175.62039 
   93600  0.077436575    4368.2643  0.034570373    4368.4149    175.62036 
   93700  0.088395832    4368.2655  0.041847672    4368.4399    175.62151 
   93800  0.084540006     4368.262  0.045068011    4368.4338    175.62021 
   93900  0.084846641    4368.2715   0.03605782    4368.4348    175.62111 
   94000  0.077816636    4368.2593  0.036618981    4368.4125    175.62015 
   94100  0.065384658    4368.2677  0.039936315    4368.4056    175.62055 
   94200  0.068249354    4368.2654  0.030181689    4368.3979    175.62136 
   94300  0.058242115    4368.2627  0.035128383    4368.3851    175.61968 
   94400   0.07293917    4368.2647  0.029718992    4368.4037    175.62128 
   94500  0.067081654    4368.2641  0.033900321    4368.3986    175.62118 
   94600  0.063330339    4368.2671  0.040257178    4368.4023    175.62075 
   94700  0.067136294    4368.2652  0.040659745    4368.4065     175.6215 
   94800  0.080684212    4368.2615  0.035209917    4368.4176    175.62022 
   94900  0.072068656    4368.2709  0.039831056    4368.4187     175.6216 
   95000  0.074702043    4368.2664  0.034972615    4368.4133    175.62024 
   95100  0.066872981    4368.2662  0.041805032    4368.4082     175.6202 
   95200  0.081611123     4368.262  0.039197444    4368.4235    175.62188 
   95300  0.076032728    4368.2691  0.039007689    4368.4221    175.62078 
   95400  0.076260748    4368.2675  0.042343491    4368.4241    175.62175 
   95500  0.079563965    4368.2705   0.03778985    4368.4275    175.62077 
   95600  0.075010493    4368.2687  0.041054736    4368.4222    175.61993 
   95700  0.085279288    4368.2678  0.043662088    4368.4393    175.62056 
   95800  0.081165711    4368.2645  0.042020745    4368.4282    175.62061 
   95900  0.076599476     4368.268  0.053376913    4368.4362    175.61961 
   96000  0.086871525    4368.2626  0.044952754    4368.4378    175.62041 
   96100  0.075581097    4368.2631  0.035910165    4368.4123    175.62009 
   96200  0.079631676    4368.2645  0.041160265     4368.425    175.62092 
   96300  0.084135235    4368.2625  0.035901317    4368.4245    175.62041 
   96400  0.075718394    4368.2627  0.038805257     4368.415    175.61984 
   96500  0.077500481     4368.267  0.035243135    4368.4184     175.6214 
   96600  0.076459397    4368.2647  0.050276264    4368.4296    175.62024 
   96700   0.07601892    4368.2676  0.036804284    4368.4183    175.62209 
   96800  0.072981065    4368.2623  0.041403446    4368.4131    175.62017 
   96900  0.071128139    4368.2736  0.034810669     4368.415    175.62017 
   97000  0.061943775    4368.2657  0.039210978    4368.3977     175.6201 
   97100  0.063820177    4368.2625  0.047328864    4368.4055    175.61994 
   97200  0.076923078    4368.2696  0.031512929    4368.4164    175.62066 
   97300  0.071546206    4368.2721  0.037801918    4368.4172    175.62049 
   97400  0.070172974    4368.2689  0.034373347    4368.4085     175.6207 
   97500  0.070548538    4368.2655  0.044761427     4368.416    175.62073 
   97600  0.076040061    4368.2632  0.037728463    4368.4149    175.62026 
   97700  0.079885246    4368.2616  0.038095779    4368.4194    175.62014 
   97800  0.085471891    4368.2637  0.037479131    4368.4293    175.62146 
   97900  0.079910697    4368.2669  0.036792472    4368.4235    175.62094 
   98000  0.071542394    4368.2675  0.035513011    4368.4102    175.62058 
   98100  0.068725263    4368.2668  0.033717536    4368.4035    175.62079 
   98200  0.069589228    4368.2692  0.041862212    4368.4153    175.62044 
   98300   0.07660454    4368.2686  0.038507073     4368.422    175.61955 
   98400  0.076872274    4368.2686  0.038834035    4368.4227    175.61924 
   98500  0.075374475    4368.2652  0.042409204    4368.4206    175.62077 
   98600  0.073476027    4368.2569   0.03545361    4368.4024    175.62127 
   98700  0.078394894    4368.2679  0.031046007    4368.4165    175.62124 
   98800  0.083534927    4368.2638  0.023291822    4368.4123    175.62106 
   98900   0.07544614    4368.2643  0.029722019    4368.4071    175.62107 
   99000  0.066762114    4368.2564   0.02738368    4368.3839    175.62097 
   99100  0.068883871    4368.2637  0.035563852    4368.4025    175.62019 
   99200   0.08528419    4368.2679  0.033138892    4368.4289    175.62084 
   99300  0.082944282    4368.2686  0.036627533    4368.4295    175.62028 
   99400   0.08015681    4368.2687  0.042237802    4368.4311    175.62032 
   99500  0.076416386     4368.264  0.042234368    4368.4208    175.61989 
   99600  0.080983946    4368.2643  0.041485084    4368.4272    175.61944 
   99700   0.07110311    4368.2728  0.048194857    4368.4276     175.6204 
   99800  0.071422115    4368.2598  0.035754638    4368.4026    175.62053 
   99900   0.06983862    4368.2655  0.037738391    4368.4079    175.62129 
  100000  0.064829291    4368.2558  0.034972562    4368.3879    175.62063 
  100100  0.066187293    4368.2669  0.036860421     4368.403    175.62089 
  100200  0.061626544    4368.2597  0.038263606    4368.3904    175.62043 
  100300  0.066667303    4368.2697  0.036648784    4368.4063    175.62029 
  100400   0.06926525    4368.2695  0.033442682    4368.4068    175.62061 
  100500  0.074466955    4368.2708  0.043236755    4368.4257    175.62068 
  100600   0.07779353    4368.2723  0.038986814    4368.4279    175.62062 
  100700  0.093538893    4368.2654  0.031073659    4368.4367    175.62093 
  100800  0.078205332    4368.2649   0.04301636    4368.4251    175.62014 
  100900  0.087701975     4368.265  0.039009024    4368.4355     175.6206 
  101000  0.086501626    4368.2604  0.035812325    4368.4259    175.62062 
  101100  0.083237128    4368.2687  0.031684567    4368.4251    175.62091 
  101200  0.071558457    4368.2662  0.047119432    4368.4206    175.61988 
  101300  0.073912001    4368.2718  0.041970863    4368.4246    175.62049 
  101400  0.082210943    4368.2674  0.043421474     4368.434    175.62036 
  101500  0.069092447    4368.2661     0.044109    4368.4138    175.62071 
  101600  0.081755876     4368.269  0.030169923    4368.4217    175.62087 
  101700  0.077633118    4368.2663  0.027026919    4368.4097    175.62039 
  101800  0.075335117    4368.2708  0.033997735    4368.4177    175.62085 
  101900  0.069334865    4368.2644  0.039924701    4368.4083    175.62043 
  102000  0.073683303    4368.2627  0.044174376    4368.4173     175.6212 
  102100  0.079509825    4368.2697  0.046263294    4368.4351    175.62064 
  102200  0.073766805    4368.2674  0.040350584    4368.4183     175.6205 
  102300  0.071027559    4368.2678  0.036385561    4368.4107    175.62017 
  102400  0.073342054    4368.2672  0.035356841    4368.4125    175.61981 
  102500   0.07965348    4368.2624   0.03133067    4368.4132    175.62024 
  102600   0.07342296    4368.2641  0.038479404    4368.4127    175.62043 
  102700  0.084863622    4368.2657  0.037883984    4368.4308    175.62067 
  102800  0.076137398    4368.2649  0.032798938    4368.4118    175.62046 
  102900  0.069152826    4368.2663  0.032514626    4368.4025    175.62045 
  103000  0.069628124    4368.2645  0.039249464    4368.4082    175.62108 
  103100  0.078580584    4368.2689  0.033562704    4368.4202    175.62053 
  103200  0.063978601    4368.2721  0.032599979    4368.4005    175.62077 
  103300  0.065939662    4368.2653  0.033328945    4368.3975    175.62119 
  103400  0.069661105    4368.2653   0.03410466    4368.4038    175.62083 
  103500  0.074805002    4368.2684  0.036926586    4368.4174      175.621 
  103600  0.063428328    4368.2645  0.039349462    4368.3989    175.61922 
  103700  0.074378621    4368.2604  0.030141221     4368.402    175.62098 
  103800  0.071380735    4368.2651  0.033419541    4368.4055    175.62123 
  103900  0.065795026    4368.2708  0.039525979    4368.4089    175.62001 
  104000  0.063971575     4368.265  0.040521242    4368.4014    175.62021 
  104100  0.076359331    4368.2641  0.039063574    4368.4176    175.62078 
  104200  0.078482659    4368.2678  0.047839214    4368.4333    175.61973 
  104300  0.078686724     4368.267  0.045456535    4368.4304    175.62079 
  104400  0.082887288    4368.2694  0.044865822    4368.4385    175.62082 
  104500  0.067906969    4368.2713  0.041066142    4368.4142     175.6199 
  104600  0.075220972    4368.2641  0.040024212    4368.4169    175.62032 
  104700  0.082754018      4368.27   0.03615089    4368.4302    175.62026 
  104800  0.075366875    4368.2664  0.033919184    4368.4133    175.62014 
  104900  0.070747149    4368.2712  0.032635717    4368.4099    175.62111 
  105000  0.077316638    4368.2702   0.03350206    4368.4196    175.62067 
  105100   0.07095248    4368.2665  0.040392722    4368.4133    175.61963 
  105200  0.080562577    4368.2697  0.035105691    4368.4256    175.62061 
  105300   0.07367821    4368.2624  0.036402534    4368.4093    175.62019 
  105400  0.076843597    4368.2672  0.031786482    4368.4142    175.62153 
  105500  0.073989911    4368.2638  0.029145333    4368.4038    175.62192 
  105600  0.074814779    4368.2627  0.032236656    4368.4071    175.62071 
  105700  0.075714438    4368.2708  0.038168064    4368.4225    175.62039 
  105800  0.065197167    4368.2629  0.036612735    4368.3973    175.61988 
  105900   0.07295351    4368.2688  0.039593182    4368.4178    175.61995 
  106000  0.079742234    4368.2647  0.035887014    4368.4201    175.62055 
  106100  0.076025952     4368.269  0.048386283    4368.4313    175.61955 
  106200   0.06888149    4368.2678  0.047223393    4368.4183    175.61932 
  106300  0.079163034    4368.2653  0.032508911    4368.4164    175.62062 
  106400  0.063388365    4368.2674  0.035913936    4368.3983     175.6203 
  106500  0.062165293    4368.2662  0.036461518    4368.3959    175.61991 
  106600  0.070604488    4368.2661  0.041648581    4368.4136    175.62041 
  106700  0.074047518    4368.2675  0.039480974    4368.4179    175.62018 
  106800  0.074803399    4368.2696  0.032430049    4368.4141    175.62117 
  106900  0.074886317    4368.2683  0.027576397    4368.4082    175.62071 
  107000  0.066541547    4368.2685  0.035146648    4368.4034    175.62029 
  107100  0.077841269    4368.2624  0.038300187    4368.4174     175.6211 
  107200  0.076646769    4368.2634  0.039472502    4368.4178     175.6216 
  107300   0.07559401    4368.2664   0.03919586    4368.4189    175.62068 
  107400  0.076912422    4368.2642  0.035057173    4368.4145    175.62039 
  107500  0.068267721    4368.2699  0.041417737    4368.4136    175.62087 
  107600  0.074225454    4368.2681  0.042323673    4368.4217    175.62038 
  107700  0.072446292    4368.2648  0.039692348     4368.413     175.6205 
  107800  0.068285513    4368.2666  0.041384416    4368.4103    175.62067 
  107900  0.074708063    4368.2693  0.047944262    4368.4292    175.62085 
  108000  0.089528322    4368.2657  0.037141533     4368.437     175.6209 
  108100  0.083786264     4368.271   0.04691192    4368.4435    175.61964 
  108200  0.091956943    4368.2727  0.046107694    4368.4566    175.62094 
  108300  0.081845023    4368.2726  0.048681214     4368.444    175.61988 
  108400  0.081682191    4368.2747  0.037737362    4368.4349    175.62022 
  108500   0.06956848    4368.2658    0.0345027    4368.4046    175.62047 
  108600  0.066391112    4368.2689  0.034212854    4368.4026    175.62097 
  108700  0.070373333    4368.2622  0.037701526    4368.4054    175.61937 
  108800  0.073777459    4368.2698  0.042796829    4368.4232    175.61976 
  108900  0.073306744     4368.268  0.037770322    4368.4156    175.61958 
  109000  0.074176873    4368.2695  0.039838843    4368.4205    175.62072 
  109100  0.086623481    4368.2697  0.035258798    4368.4348    175.62024 
  109200  0.075968473    4368.2689  0.039787026    4368.4225     175.6201 
  109300  0.088564661     4368.269  0.034436402    4368.4362     175.6213 
  109400  0.082503846    4368.2734  0.039671647    4368.4368    175.61993 
  109500  0.075488475    4368.2703  0.039967346    4368.4234    175.61989 
  109600  0.071237628    4368.2726   0.03281792    4368.4121    175.62039 
  109700  0.074202779    4368.2647  0.033924446    4368.4098    175.62002 
  109800  0.066736823     4368.269  0.034093533    4368.4031    175.62065 
  109900  0.077633402    4368.2673  0.045585827    4368.4292    175.61971 
  110000  0.076535756    4368.2696  0.043590075     4368.428    175.62078 
  110100  0.077908393    4368.2679  0.044734494    4368.4294    175.62094 
  110200  0.079565969    4368.2662  0.033784243    4368.4192    175.62017 
  110300  0.082377104    4368.2672  0.035054878    4368.4257    175.62099 
  110400  0.074279967     4368.264  0.041712227    4368.4171     175.6205 
  110500  0.071947445    4368.2666  0.037089896    4368.4115    175.62017 
  110600  0.076562092    4368.2714  0.032683712    4368.4188    175.62056 
  110700  0.069570869    4368.2631  0.043305796    4368.4107    175.62074 
  110800  0.071855459    4368.2656  0.036953495    4368.4102    175.62024 
  110900  0.077434337    4368.2708  0.037697808    4368.4246    175.62078 
  111000  0.078152718    4368.2658  0.036530773    4368.4194    175.62014 
  111100  0.069744799    4368.2627   0.04105238    4368.4082    175.62043 
  111200  0.068893365    4368.2701  0.032765559    4368.4061    175.62059 
  111300  0.078806492    4368.2712  0.037594133    4368.4269    175.62065 
  111400  0.079450081    4368.2714  0.043608682    4368.4341    175.62044 
  111500  0.070788125    4368.2721  0.037326398    4368.4155    175.62065 
  111600  0.069793423    4368.2732  0.034243743    4368.4121    175.62069 
  111700  0.065667826    4368.2741  0.043089004    4368.4157    175.62031 
  111800  0.064344076    4368.2742  0.029317691    4368.3999    175.62111 
  111900  0.066879071    4368.2669  0.043078141    4368.4103    175.62015 
  112000  0.071956142    4368.2693  0.035503425    4368.4127    175.61993 
  112100  0.076407029    4368.2735  0.046819808    4368.4348    175.62046 
  112200  0.085302433    4368.2685  0.031267131    4368.4276    175.62077 
  112300  0.081238578    4368.2667  0.034972689    4368.4234    175.62093 
  112400  0.079414864     4368.266  0.029128186    4368.4141    175.62094 
  112500  0.074774987    4368.2688  0.036771073    4368.4176     175.6195 
  112600  0.074661293    4368.2702  0.046580288    4368.4287    175.62058 
  112700  0.079886335    4368.2708    0.0476439    4368.4382    175.62048 
  112800  0.078582567    4368.2704  0.033708331    4368.4219     175.6214 
  112900  0.065557494    4368.2698  0.037444496    4368.4055    175.61993 
  113000  0.066512609    4368.2656  0.041496193    4368.4068    175.62027 
  113100  0.077215779    4368.2718  0.045258645    4368.4328    175.62131 
  113200   0.07808677    4368.2677  0.042670963    4368.4274    175.61997 
  113300   0.06905427    4368.2721  0.040976507    4368.4166    175.62073 
  113400  0.064989814    4368.2695  0.041421436    4368.4083    175.62043 
  113500   0.06759203    4368.2661  0.038360409    4368.4057    175.61985 
  113600  0.074863968    4368.2649  0.040003025    4368.4172    175.62037 
  113700  0.075149228      4368.27  0.030689986    4368.4134    175.62143 
  113800  0.072758698    4368.2734  0.031632201     4368.414    175.62067 
  113900  0.074339079    4368.2691  0.029560429    4368.4101    175.62035 
  114000  0.071557232    4368.2626  0.034541215    4368.4044    175.62011 
  114100  0.076151235    4368.2631  0.041229865    4368.4184    175.62042 
  114200  0.089665279    4368.2665  0.039699766    4368.4406    175.62136 
  114300  0.082780179    4368.2677  0.045608713    4368.4374    175.62088 
  114400  0.086598499     4368.265  0.035773694    4368.4305    175.62096 
  114500  0.079221754     4368.266  0.035215979      4368.42    175.61999 
  114600  0.087833216     4368.269  0.037598059    4368.4383    175.62127 
  114700  0.084738659    4368.2695  0.045696154    4368.4422    175.62044 
  114800  0.082408368    4368.2689  0.044955503    4368.4374    175.62088 
  114900  0.077653927    4368.2679  0.031436141    4368.4158    175.62102 
  115000  0.080569948    4368.2674  0.028202859    4368.4163    175.62146 
  115100  0.064785067    4368.2667  0.048759634    4368.4125    175.62059 
  115200  0.074208267    4368.2624  0.045808699    4368.4195    175.61986 
  115300  0.079186665    4368.2717  0.035133031    4368.4255    175.62006 
  115400  0.077432309    4368.2747  0.036451132    4368.4272    175.62062 
  115500  0.073769459    4368.2715  0.042423032    4368.4245    175.62042 
  115600  0.073124598     4368.263  0.036586131    4368.4092    175.62135 
  115700  0.086778809    4368.2679   0.02945356    4368.4274    175.62039 
  115800  0.076728476    4368.2636  0.034152808    4368.4128    175.62069 
  115900    0.0641574    4368.2681  0.031782393    4368.3961    175.62056 
  116000  0.071163404    4368.2664  0.045928852     4368.419    175.62001 
  116100  0.079269079    4368.2713  0.034913381     4368.425    175.62032 
  116200   0.07652957    4368.2695  0.035256443    4368.4195    175.62101 
  116300  0.077169564    4368.2652  0.035207675    4368.4161    175.62068 
  116400  0.080661989    4368.2682  0.033099189    4368.4222     175.6213 
  116500  0.071480865    4368.2643  0.048563298      4368.42    175.61976 
  116600   0.07213814    4368.2714  0.036746218    4368.4163    175.62043 
  116700  0.064852648    4368.2725  0.038501326    4368.4082    175.61997 
  116800  0.071771631    4368.2688  0.034020744    4368.4104    175.62025 
  116900  0.074085506    4368.2723  0.039250307    4368.4225    175.61996 
  117000  0.059447324    4368.2669  0.047021625    4368.4031    175.62055 
  117100  0.080572431     4368.265  0.032364285    4368.4181    175.62061 
  117200  0.065602504     4368.265  0.035176677    4368.3985    175.62037 
  117300  0.074986462    4368.2636  0.034702939    4368.4107    175.62068 
  117400  0.072656351    4368.2693   0.03665537    4368.4148    175.62028 
  117500   0.06404193    4368.2552  0.033732589     4368.385    175.62108 
  117600  0.072390379    4368.2687  0.038110108    4368.4154    175.62046 
  117700  0.074776234    4368.2681  0.033843758    4368.4141    175.62038 
  117800  0.084031469    4368.2659  0.030666256    4368.4225    175.62035 
  117900  0.078263906    4368.2649  0.043759131     4368.426    175.62069 
  118000  0.075198709    4368.2601  0.042873252    4368.4157    175.62001 
  118100   0.07668747    4368.2671  0.032282458    4368.4143    175.62017 
  118200  0.077627405    4368.2574  0.032412422    4368.4061    175.62153 
  118300  0.075533509    4368.2678  0.044235259    4368.4253    175.62069 
  118400  0.090404496    4368.2671  0.035025942    4368.4376    175.62092 
  118500  0.075206624    4368.2613  0.035202137    4368.4092    175.62154 
  118600  0.070940785    4368.2629  0.044732808     4368.414    175.62116 
  118700  0.076155869    4368.2606  0.037613336    4368.4123    175.62122 
  118800  0.083982194     4368.268  0.038300834    4368.4322    175.62008 
  118900  0.070668299    4368.2623  0.039276703    4368.4075    175.62043 
  119000  0.074836034    4368.2561  0.040689922    4368.4089    175.62097 
  119100  0.079997791    4368.2635  0.042394473    4368.4258    175.62037 
  119200  0.082247177    4368.2678  0.040473409    4368.4315    175.62051 
  119300  0.082984224    4368.2655  0.039972512    4368.4298    175.62022 
  119400  0.073318278    4368.2671  0.036306052    4368.4133    175.62009 
  119500  0.071059298    4368.2639  0.024948438    4368.3953    175.62148 
  119600  0.065298409    4368.2711  0.028884653    4368.3979    175.62006 
  119700  0.072281329    4368.2705  0.034773625    4368.4136    175.62041 
  119800  0.073803416    4368.2733  0.034705313    4368.4187    175.62056 
  119900   0.06727126    4368.2715  0.034369957    4368.4067    175.62045 
  120000  0.068845149    4368.2664  0.039505029    4368.4091    175.62048 
  120100  0.064333924    4368.2638  0.039413738    4368.3997    175.62063 
  120200  0.071665313    4368.2685     0.033768    4368.4097    175.61965 
  120300  0.070273914    4368.2677  0.042188885    4368.4152    175.62041 
  120400  0.064614128    4368.2727  0.038924616    4368.4085    175.62074 
  120500  0.068397224    4368.2688  0.031692619     4368.403    175.61994 
  120600  0.077996084    4368.2682   0.03611303    4368.4212    175.61985 
  120700  0.071246988    4368.2726  0.035810236    4368.4152    175.62037 
  120800  0.073928767    4368.2661  0.033713158    4368.4107    175.62041 
  120900  0.084908442     4368.267  0.037113483    4368.4314    175.62044 
  121000  0.069607717    4368.2637  0.031763567    4368.3998    175.62142 
  121100   0.07244226    4368.2756  0.029694786    4368.4138    175.62103 
  121200  0.082757667    4368.2671  0.029655981    4368.4208    175.61962 
  121300  0.075344902    4368.2657  0.035238123    4368.4139    175.62001 
  121400  0.069154081    4368.2766  0.037602887    4368.4179    175.62065 
  121500  0.079850738    4368.2696  0.042046333    4368.4313    175.62018 
  121600  0.071461887    4368.2715  0.037793328    4368.4164    175.61943 
  121700   0.06861971    4368.2661  0.044687501    4368.4136    175.62035 
  121800  0.070445154    4368.2743   0.03614783    4368.4161    175.62085 
  121900  0.077923617    4368.2727  0.026179895    4368.4157    175.62014 
  122000  0.078517195    4368.2622  0.042109923     4368.422    175.62004 
  122100  0.075688722    4368.2767  0.039336698    4368.4295    175.61956 
  122200  0.070672965    4368.2701  0.040394108    4368.4164    175.62074 
  122300  0.070557555    4368.2681  0.031319362    4368.4052    175.62092 
  122400  0.071741219    4368.2653  0.040959872    4368.4137    175.62116 
  122500  0.071530398    4368.2691  0.044705395     4368.421    175.62032 
  122600  0.075323908    4368.2651  0.053248412    4368.4313    175.62066 
  122700  0.075323645    4368.2677  0.040707118    4368.4214    175.62079 
  122800  0.073819332    4368.2666  0.045392744    4368.4227     175.6204 
  122900  0.077907469    4368.2714  0.050540359    4368.4387    175.61991 
  123000  0.081482707    4368.2659  0.047254128    4368.4353    175.62043 
  123100  0.095073338    4368.2679  0.038639737     4368.449    175.62085 
  123200  0.078275991    4368.2652  0.040214161    4368.4227    175.62084 
  123300  0.069621717    4368.2662  0.035897827    4368.4065    175.61971 
  123400  0.068539471    4368.2651  0.029308903    4368.3971    175.62083 
  123500  0.080214085    4368.2639  0.041956872    4368.4261    175.62032 
  123600  0.079779214    4368.2649  0.033890726    4368.4183    175.62132 
  123700  0.076159744     4368.266  0.041581081    4368.4217     175.6211 
  123800  0.076693704    4368.2644  0.036391695    4368.4158    175.62054 
  123900  0.067869066      4368.27  0.043400372    4368.4152    175.62071 
  124000  0.079001935    4368.2691  0.043866581    4368.4314    175.62167 
  124100  0.083035741    4368.2626  0.033772353    4368.4209    175.62051 
  124200  0.072934642    4368.2683  0.042775066    4368.4204    175.62061 
  124300  0.073641341    4368.2669  0.041618951    4368.4189    175.62083 
  124400  0.075521985    4368.2669   0.04370256    4368.4238    175.61975 
  124500  0.077518929    4368.2672  0.033538537    4368.4169    175.62025 
  124600  0.084257481    4368.2666  0.044773541    4368.4376    175.62025 
  124700  0.084142289    4368.2688  0.042328907    4368.4373    175.62002 
  124800  0.075092635    4368.2658   0.04567278     4368.424    175.62023 
  124900  0.081665501    4368.2662  0.042282704    4368.4308    175.62054 
  125000  0.070703626    4368.2697  0.046371078    4368.4221    175.62021 
  125100  0.080613215    4368.2714  0.033564261    4368.4258    175.62055 
  125200  0.082650663    4368.2717  0.037873153    4368.4335    175.61963 
  125300  0.073060654    4368.2655  0.037489954    4368.4125    175.62056 
  125400  0.075558811    4368.2692  0.042108733    4368.4245    175.61967 
  125500  0.075028793     4368.268  0.050032023    4368.4305     175.6203 
  125600  0.082141312    4368.2675  0.047924827    4368.4385     175.6208 
  125700  0.077556345     4368.264  0.042140308    4368.4223    175.62049 
  125800  0.077579892    4368.2635  0.034921929    4368.4147    175.62023 
  125900  0.073046519    4368.2646  0.036262062    4368.4103    175.62098 
  126000  0.080969503    4368.2679  0.039359735    4368.4286    175.62093 
  126100  0.067248449    4368.2642  0.040523156    4368.4055    175.62067 
  126200  0.067390403    4368.2648   0.03726189    4368.4031    175.62031 
  126300  0.076587085    4368.2688  0.036010006    4368.4196    175.62105 
  126400  0.078839396    4368.2688  0.031989973    4368.4189    175.62071 
  126500  0.079170884    4368.2715  0.036775305     4368.427    175.62048 
  126600   0.06785089    4368.2644  0.041997551    4368.4081    175.62085 
  126700    0.0832625      4368.27  0.032713404    4368.4275    175.62027 
  126800  0.077656975    4368.2649  0.036691711     4368.418    175.62023 
  126900  0.075693573    4368.2643  0.032041544    4368.4098    175.61967 
  127000  0.067695846    4368.2711  0.035063625    4368.4076    175.62067 
  127100  0.066072721    4368.2655  0.035226948    4368.3997    175.62017 
  127200  0.065186484    4368.2715   0.03862674    4368.4078    175.61972 
  127300  0.074264461    4368.2671   0.03422504    4368.4126    175.61983 
  127400  0.063820829    4368.2723  0.032266992    4368.4002       175.62 
  127500  0.071008101    4368.2666  0.030475147    4368.4035    175.62029 
  127600  0.074783558    4368.2722  0.034250069    4368.4185    175.62024 
  127700  0.073964204    4368.2729  0.040096831    4368.4239    175.61971 
  127800    0.0782713    4368.2749  0.037687886    4368.4299    175.61977 
  127900  0.065448409    4368.2735  0.037286817    4368.4088    175.62067 
  128000  0.075454449    4368.2666  0.044313406     4368.424    175.61958 
  128100  0.073185312    4368.2645  0.027306773    4368.4015    175.62089 
  128200  0.064275375    4368.2699  0.041846629    4368.4081    175.61953 
  128300  0.072145333      4368.27  0.032825978     4368.411    175.61997 
  128400   0.06671025    4368.2683  0.029637059    4368.3979    175.62085 
  128500  0.063631311    4368.2664   0.03991243    4368.4017    175.62001 
  128600  0.070510631    4368.2689  0.034189315    4368.4088    175.62022 
  128700  0.074566834    4368.2652  0.038850292    4368.4158     175.6204 
  128800  0.064576451    4368.2645  0.039708126     4368.401    175.62025 
  128900  0.063794361    4368.2698  0.040938512    4368.4064    175.62051 
  129000  0.065368809    4368.2678   0.03852513    4368.4044     175.6207 
  129100  0.077813328    4368.2715  0.032643414    4368.4207    175.62025 
  129200  0.075179246    4368.2635  0.043016923    4368.4192    175.62008 
  129300  0.081909405    4368.2711  0.034266303    4368.4282     175.6198 
  129400  0.078526032    4368.2691  0.038422547    4368.4252    175.62083 
  129500  0.071315633    4368.2673   0.04469636    4368.4189    175.61946 
  129600  0.066864596    4368.2744  0.038245997    4368.4129    175.62154 
  129700  0.075805027    4368.2674  0.032790658    4368.4138    175.62048 
  129800   0.07289541    4368.2585  0.034414665    4368.4022    175.62084 
  129900  0.075020768    4368.2672  0.036572717    4368.4162    175.62076 
  130000  0.072826679    4368.2683  0.043428306    4368.4209    175.62092 
  130100  0.088909803    4368.2636  0.038438047    4368.4353    175.62017 
  130200  0.074711875    4368.2657  0.043365131     4368.421    175.62027 
  130300  0.073886701    4368.2688  0.045388844     4368.425    175.62028 
  130400  0.085281662    4368.2674  0.038887268    4368.4341    175.61991 
  130500  0.085358494    4368.2702  0.040650009    4368.4388    175.62028 
  130600  0.081811541    4368.2666  0.045559107    4368.4347    175.62134 
  130700  0.077113996    4368.2543  0.036792489    4368.4066    175.62022 
  130800  0.080818344    4368.2664  0.040037461    4368.4275    175.62094 
  130900  0.065045018    4368.2714  0.037787973    4368.4067    175.62114 
  131000  0.074407417    4368.2606  0.037788588    4368.4099    175.62165 
  131100  0.068268548    4368.2675   0.03625073     4368.406    175.62128 
  131200  0.082618532    4368.2606  0.036473604    4368.4209    175.62072 
  131300  0.069313781    4368.2617  0.040534702    4368.4062    175.62097 
  131400  0.077032066    4368.2618  0.041401843    4368.4187    175.62129 
  131500   0.08036707    4368.2719  0.044223351    4368.4366    175.62057 
  131600  0.081751611    4368.2616  0.033630882    4368.4178    175.62062 
  131700  0.077909044    4368.2684  0.039523272    4368.4247    175.62117 
  131800  0.064758057    4368.2694  0.041697166    4368.4082     175.6202 
  131900  0.072757384    4368.2719  0.030712302    4368.4117    175.62057 
  132000    0.0707671    4368.2616  0.040811086    4368.4085    175.62091 
  132100   0.07410363    4368.2673  0.040541325    4368.4189    175.61978 
  132200  0.075043837     4368.272  0.031830453    4368.4163     175.6212 
  132300  0.063073275    4368.2711  0.044971465    4368.4106    175.61901 
  132400  0.065704678    4368.2705  0.036781573    4368.4058    175.62072 
  132500  0.064712947    4368.2708   0.05153125    4368.4193    175.61851 
  132600  0.076095825    4368.2666  0.039704977    4368.4203    175.62025 
  132700  0.075196474    4368.2725  0.052418583    4368.4376    175.62099 
  132800  0.085900099    4368.2707  0.040062022    4368.4395    175.62022 
  132900  0.078076986    4368.2679  0.042330117    4368.4273    175.62129 
  133000  0.071315473    4368.2693  0.040393224    4368.4166    175.62056 
  133100  0.068569307    4368.2651  0.038567243    4368.4064    175.62035 
  133200  0.070902042     4368.272  0.039082939    4368.4174    175.62106 
  133300  0.075085122    4368.2697  0.044608838    4368.4269    175.62005 
  133400  0.072727239    4368.2658  0.039204317     4368.414    175.62064 
  133500  0.073761847    4368.2642  0.040551654    4368.4153    175.62082 
  133600  0.070810713    4368.2659  0.033565893    4368.4056     175.6212 
  133700  0.076189146    4368.2687  0.038827371    4368.4217    175.61918 
  133800  0.069260993     4368.259  0.039436846    4368.4023    175.62098 
  133900  0.069989543    4368.2676  0.030620604    4368.4031     175.6206 
  134000  0.074017071    4368.2703   0.03938609    4368.4206    175.61943 
  134100  0.075146788    4368.2688  0.031133296    4368.4126    175.62039 
  134200  0.078814944    4368.2723  0.033343676    4368.4238    175.61985 
  134300  0.075771637    4368.2695  0.037564374    4368.4207    175.61987 
  134400  0.072274701    4368.2752  0.037491516     4368.421    175.62017 
  134500  0.078020631    4368.2703  0.034306057    4368.4216    175.62012 
  134600  0.072517136    4368.2729  0.035873833    4368.4174    175.61923 
  134700  0.067205883    4368.2685  0.041832054     4368.411    175.62065 
  134800  0.071656459     4368.273  0.035172105    4368.4155     175.6208 
  134900  0.084771978    4368.2619  0.031872532    4368.4208    175.62036 
  135000  0.068671667    4368.2679  0.046672465    4368.4175     175.6201 
  135100  0.075888764    4368.2669  0.039851034    4368.4205    175.62054 
  135200  0.071497491    4368.2698  0.040870682    4368.4178    175.62041 
  135300  0.076771552    4368.2658  0.046074261    4368.4269    175.62035 
  135400  0.073040277    4368.2584  0.041747941    4368.4096    175.62117 
  135500   0.07508033    4368.2622  0.028766409    4368.4035    175.62086 
  135600  0.073219595    4368.2657   0.03034064    4368.4058    175.62042 
  135700  0.067936473    4368.2684  0.031429982    4368.4016    175.62113 
  135800  0.079871239    4368.2662  0.026390033    4368.4123    175.62125 
  135900  0.080285625    4368.2591  0.046386321    4368.4258    175.62048 
  136000  0.070551095     4368.265  0.038798771    4368.4095    175.62044 
  136100  0.063897305    4368.2676  0.037484102    4368.4009    175.61991 
  136200  0.067235002    4368.2686  0.035614062     4368.405    175.62101 
  136300  0.075396299    4368.2675   0.03158996    4368.4121    175.62106 
  136400  0.069495709    4368.2692  0.038917255    4368.4123     175.6206 
  136500  0.077321783    4368.2646  0.040961229    4368.4215    175.62106 
  136600  0.076607189    4368.2623  0.044752924    4368.4219    175.62132 
  136700  0.082799377    4368.2673  0.040651295    4368.4321    175.62003 
  136800  0.083441945    4368.2629  0.034157389    4368.4221    175.62169 
  136900  0.085944143    4368.2675  0.037416942    4368.4338    175.62092 
  137000  0.084991379    4368.2703  0.033551254    4368.4312    175.61974 
  137100  0.077482711    4368.2689  0.050741644    4368.4358    175.62045 
  137200  0.070484739    4368.2645  0.040189571    4368.4103    175.62051 
  137300  0.073228324    4368.2519  0.041769024    4368.4035    175.62092 
  137400  0.071630028    4368.2611  0.028419114    4368.3968    175.62088 
  137500  0.066539313    4368.2714  0.044555325    4368.4157    175.62043 
  137600  0.069784608    4368.2707  0.037243599    4368.4125    175.62087 
  137700  0.077252196    4368.2661    0.0372342    4368.4191    175.62088 
  137800  0.069784877    4368.2701  0.032858435    4368.4075    175.62097 
  137900  0.073750917    4368.2696  0.038374364    4368.4185    175.62059 
  138000  0.071479409    4368.2643  0.036961068    4368.4084    175.62104 
  138100   0.08007496    4368.2588  0.044880341    4368.4237    175.61979 
  138200    0.0774265     4368.271  0.044162504    4368.4312    175.62073 
  138300  0.067497052    4368.2603  0.046878255    4368.4084    175.62063 
  138400  0.068545164    4368.2675  0.048807262    4368.4191    175.62024 
  138500  0.077142135    4368.2669  0.039736036    4368.4222    175.62023 
  138600  0.080226025    4368.2624  0.050990113    4368.4337    175.62045 
  138700  0.073212081    4368.2651  0.040758057    4368.4156    175.62085 
  138800   0.07421551    4368.2578   0.03173309    4368.4007    175.62093 
  138900  0.073252356    4368.2625  0.031523511    4368.4038    175.62104 
  139000  0.069529556    4368.2641   0.03319243    4368.4015    175.62087 
  139100  0.061995069    4368.2659  0.034117111    4368.3929    175.62065 
  139200  0.065929966    4368.2602  0.026241463    4368.3853    175.62104 
  139300  0.070447633     4368.265  0.037726745    4368.4083    175.62113 
  139400  0.078661256    4368.2646  0.035695755    4368.4182    175.62142 
  139500  0.077045379    4368.2628  0.042233884    4368.4205    175.62011 
  139600  0.079022627    4368.2614  0.042802619    4368.4226    175.62052 
  139700  0.072519538    4368.2701  0.046987949    4368.4258    175.62049 
  139800  0.076636634    4368.2679    0.0370308    4368.4198    175.62102 
  139900  0.084172323    4368.2639  0.037819103    4368.4279    175.62125 
  140000  0.081208428    4368.2685  0.037695484     4368.428    175.61981 
  140100  0.075098122    4368.2733  0.034114082      4368.42     175.6208 
  140200  0.081852832     4368.271  0.037095375    4368.4308    175.62074 
  140300  0.080392712    4368.2631  0.034399648     4368.418    175.62093 
  140400  0.079782614     4368.265  0.040755421    4368.4253    175.62076 
  140500  0.067494623    4368.2606  0.042589915    4368.4044    175.62074 
  140600  0.069491116    4368.2633  0.034773033    4368.4023     175.6201 
  140700  0.085975985    4368.2658  0.037487977    4368.4322    175.61952 
  140800  0.083036606    4368.2622  0.035167071    4368.4218    175.62144 
  140900  0.079120975    4368.2638    0.0333268    4368.4157     175.6209 
  141000  0.076940373     4368.269  0.030594665    4368.4149     175.6208 
  141100  0.088177384    4368.2653  0.033431536    4368.4309    175.62089 
  141200  0.084571416    4368.2673  0.031308515    4368.4254    175.62098 
  141300  0.083006527    4368.2659  0.040078576    4368.4304    175.62002 
  141400  0.078760472    4368.2675  0.046169025    4368.4317     175.6207 
  141500  0.076896366    4368.2668  0.046146258    4368.4282    175.62102 
  141600  0.082716792    4368.2634  0.037272884    4368.4247    175.61997 
  141700  0.076054028    4368.2631  0.051573964    4368.4286    175.62005 
  141800  0.078404372    4368.2719  0.037908506    4368.4273     175.6212 
  141900  0.076313285    4368.2628  0.034338544    4368.4115    175.62056 
  142000  0.063529082    4368.2648  0.042051059    4368.4021    175.62032 
  142100  0.074144896    4368.2669   0.04060802    4368.4187    175.62117 
  142200  0.078954388    4368.2736  0.039893238    4368.4318    175.62093 
  142300   0.08330773    4368.2714  0.035301403    4368.4316    175.62073 
  142400  0.072969664    4368.2682  0.034221729    4368.4118    175.62122 
  142500  0.074306194    4368.2683  0.035632553    4368.4153    175.62069 
  142600   0.07168198    4368.2677   0.04836063    4368.4235    175.61973 
  142700  0.080274566    4368.2609  0.037504412    4368.4188    175.62102 
  142800  0.078322737    4368.2682  0.040033404    4368.4257    175.62092 
  142900  0.078948774    4368.2595  0.046934213    4368.4247    175.62119 
  143000  0.074377086    4368.2687  0.039323799    4368.4195    175.62081 
  143100  0.079966589    4368.2665  0.043430484    4368.4298    175.62173 
  143200  0.076061087    4368.2692  0.042994274    4368.4262    175.62096 
  143300  0.075254032    4368.2682  0.050524725    4368.4315     175.6198 
  143400  0.081977952    4368.2699  0.043923913    4368.4367    175.62205 
  143500   0.07758369    4368.2709  0.048845427     4368.436    175.62108 
  143600   0.07807806    4368.2713  0.033831981    4368.4222    175.62082 
  143700  0.072280185    4368.2652  0.042042286    4368.4156    175.62076 
  143800   0.07493498    4368.2662  0.042485067     4368.421    175.62036 
  143900  0.077023811    4368.2652  0.040567399    4368.4212    175.62046 
  144000  0.070225647    4368.2724  0.040102367    4368.4178    175.62071 
  144100  0.069585081      4368.27  0.052887522    4368.4272    175.61964 
  144200  0.072698947     4368.267  0.035862804    4368.4119    175.62004 
  144300  0.072847924    4368.2697  0.031953271    4368.4108    175.61999 
  144400  0.069401225    4368.2674  0.035433741    4368.4068    175.61976 
  144500  0.078991459    4368.2698  0.040814171    4368.4291    175.61969 
  144600  0.081915684    4368.2689  0.034019485    4368.4257    175.62163 
  144700  0.084290497    4368.2716  0.029541739    4368.4275    175.62011 
  144800  0.082438515    4368.2651  0.036226469    4368.4249    175.62102 
  144900  0.074803864    4368.2677  0.041583221    4368.4214    175.62015 
  145000  0.070480868    4368.2656  0.037920872    4368.4092    175.62043 
  145100  0.081928466    4368.2635  0.041284144    4368.4275    175.62144 
  145200  0.083551308    4368.2671  0.037698178      4368.43    175.62022 
  145300  0.082896817    4368.2656  0.037053709    4368.4269    175.62111 
  145400  0.077508457     4368.265  0.050623205    4368.4318    175.62102 
  145500  0.084472886    4368.2631  0.055390401    4368.4451    175.62051 
  145600  0.091511651    4368.2661  0.043977363    4368.4472    175.62103 
  145700  0.085669293    4368.2736  0.037689877    4368.4397    175.62077 
  145800  0.069851348    4368.2688  0.040402821    4368.4139    175.62078 
  145900  0.071138858    4368.2642  0.045637722    4368.4164       175.62 
  146000  0.082123928    4368.2618  0.042854844    4368.4278    175.62056 
  146100  0.075404715    4368.2688  0.037405909    4368.4193    175.62106 
  146200  0.071828748    4368.2698  0.036919723    4368.4144    175.62041 
  146300   0.07906411    4368.2619  0.031870037    4368.4123    175.62058 
  146400  0.067456706    4368.2549  0.029262765    4368.3853    175.62082 
  146500  0.071080588    4368.2681  0.029174824    4368.4038    175.62036 
  146600  0.067155614    4368.2653   0.03538924    4368.4013    175.62041 
  146700  0.071501984    4368.2708  0.031032159     4368.409    175.62066 
  146800  0.074103401    4368.2707  0.039063993    4368.4209    175.62031 
  146900  0.069072535    4368.2667  0.042584292    4368.4128    175.61975 
  147000  0.073362345    4368.2705  0.031806314    4368.4122    175.62088 
  147100  0.069024994    4368.2668  0.030388821    4368.4006    175.61992 
  147200  0.074921135    4368.2692  0.038632488    4368.4202    175.62055 
  147300  0.078934559    4368.2703  0.036978702    4368.4256    175.61997 
  147400  0.068087062    4368.2647  0.043966217    4368.4107     175.6209 
  147500  0.077823825    4368.2671  0.034520687    4368.4182    175.62028 
  147600  0.065797993    4368.2624  0.048592633    4368.4096    175.62011 
  147700  0.084182798    4368.2677  0.043509546    4368.4374    175.62107 
  147800  0.079106686    4368.2677  0.043369464    4368.4296    175.61957 
  147900  0.073782734    4368.2644  0.044551456    4368.4196    175.62126 
  148000  0.066576042    4368.2681  0.050927153    4368.4188    175.61879 
  148100  0.078185735    4368.2594  0.037489895    4368.4141    175.62041 
  148200  0.078493293    4368.2652  0.031633319    4368.4145    175.62098 
  148300  0.071171693     4368.261  0.040948078    4368.4087    175.62136 
  148400  0.064701319    4368.2593  0.038559395    4368.3948    175.62024 
  148500  0.079120268    4368.2588  0.036690307    4368.4141     175.6215 
  148600  0.084826806    4368.2548  0.038463785    4368.4204    175.62128 
  148700  0.072465969    4368.2563  0.037813018    4368.4027    175.62104 
  148800    0.0759515    4368.2645  0.031790888    4368.4101    175.62053 
  148900  0.073817821    4368.2646   0.05248463    4368.4277    175.62002 
  149000  0.075047869    4368.2648  0.045955689    4368.4233    175.61976 
  149100  0.077658108    4368.2655  0.034202413    4368.4161    175.62082 
  149200  0.072293181    4368.2602  0.031546103    4368.4001    175.62167 
  149300  0.080014659    4368.2669   0.03217304     4368.419    175.62058 
  149400  0.076963496    4368.2579  0.042353868    4368.4157    175.62164 
  149500  0.078870503     4368.264  0.034393965    4368.4166    175.62154 
  149600  0.080341026    4368.2612  0.034742752    4368.4164    175.62194 
  149700  0.076133073     4368.258  0.040898455     4368.413    175.62085 
  149800  0.086126739    4368.2671  0.037740111    4368.4339    175.62069 
  149900  0.072230242    4368.2687  0.027099128     4368.404    175.62066 
  150000  0.069578537    4368.2659  0.035262376    4368.4055    175.62088 
  150100  0.071974818    4368.2631  0.034734432    4368.4057    175.62051 
  150200  0.080673151    4368.2695  0.030021974    4368.4204    175.62085 
  150300  0.074753832    4368.2668  0.032212819    4368.4111    175.62115 
  150400  0.073086562    4368.2649  0.032417851    4368.4069    175.62048 
  150500  0.070952657    4368.2698  0.037103569    4368.4132    175.61953 
  150600  0.076670331    4368.2668  0.034794328    4368.4166    175.62053 
  150700  0.080232255    4368.2701    0.0338632    4368.4242    175.62007 
  150800  0.082738111    4368.2518  0.045079885    4368.4209    175.62075 
  150900  0.089253596    4368.2659  0.036242036    4368.4359    175.62024 
  151000  0.075305457    4368.2591  0.032631782    4368.4046    175.62062 
  151100  0.077672925     4368.267  0.040692239    4368.4242    175.61996 
  151200  0.081123987    4368.2643  0.037862421    4368.4237    175.62046 
  151300  0.077210505    4368.2668  0.046096148    4368.4286    175.62061 
  151400  0.079221918    4368.2648  0.036429778      4368.42    175.62185 
  151500  0.074298533    4368.2686  0.039823484    4368.4197    175.62032 
  151600  0.073676299    4368.2673  0.027017885    4368.4048    175.62131 
  151700  0.074902225    4368.2684  0.030690662    4368.4114    175.62046 
  151800  0.065341507    4368.2657  0.036232614    4368.3999    175.62039 
  151900  0.077630667     4368.255  0.038552212    4368.4099    175.62042 
  152000  0.076610256    4368.2635  0.040408553    4368.4188    175.62116 
  152100  0.073900124    4368.2588  0.041758114    4368.4113    175.62026 
  152200   0.06715737    4368.2666  0.032963257    4368.4002    175.62106 
  152300  0.069184348    4368.2621  0.034053836    4368.3999    175.62069 
  152400  0.072494542      4368.26  0.041302271      4368.41    175.62016 
  152500  0.074968569    4368.2698  0.047251995    4368.4294    175.62109 
  152600  0.073175538    4368.2635  0.049773885     4368.423       175.62 
  152700  0.068760071    4368.2674  0.028015626    4368.3985     175.6201 
  152800  0.065787279    4368.2635  0.034708109    4368.3968    175.62004 
  152900  0.062174306    4368.2646  0.048207886     4368.406    175.61973 
  153000  0.062371591    4368.2683  0.041108265    4368.4029    175.61968 
  153100  0.065930234    4368.2732  0.032272498    4368.4043    175.62029 
  153200   0.07151521    4368.2637  0.037558625    4368.4084    175.62104 
  153300  0.067354079    4368.2698  0.034584174    4368.4053    175.62113 
  153400  0.072703304    4368.2605  0.044733978    4368.4142    175.62163 
  153500   0.08223844    4368.2717  0.029287298    4368.4242    175.62132 
  153600   0.08380491    4368.2674  0.041310772    4368.4343    175.62151 
  153700  0.079253143    4368.2736  0.040980753    4368.4334    175.61982 
  153800  0.064294625    4368.2579  0.033313146    4368.3875    175.62134 
  153900  0.072344389    4368.2682   0.03458197    4368.4112    175.62063 
  154000  0.069216736    4368.2716  0.035531899    4368.4109    175.62054 
  154100   0.07363031    4368.2674  0.025207274    4368.4029    175.62102 
  154200  0.068566172    4368.2601  0.032649118    4368.3955    175.61963 
  154300  0.066953248    4368.2713  0.030044858    4368.4017    175.62048 
  154400  0.072534749    4368.2674  0.035815007     4368.412    175.62071 
  154500  0.070408528    4368.2655  0.036054167    4368.4071    175.62015 
  154600  0.076969398    4368.2656  0.029123201    4368.4101      175.621 
  154700  0.076621379    4368.2698  0.038180726    4368.4229    175.62083 
  154800  0.073198769    4368.2629  0.034391146     4368.407    175.62083 
  154900  0.081630721    4368.2689  0.039620003    4368.4308    175.62086 
  155000  0.077053724    4368.2708   0.03768701     4368.424    175.62049 
  155100  0.078493263    4368.2612  0.041813067    4368.4206    175.62081 
  155200  0.077383019    4368.2651  0.041653705    4368.4227    175.62022 
  155300  0.082015185    4368.2713  0.039793905     4368.434    175.62142 
  155400  0.080829328    4368.2666  0.041348641    4368.4291    175.62016 
  155500  0.083889057    4368.2685  0.034956665    4368.4292    175.62049 
  155600   0.08157095    4368.2588  0.042582048    4368.4236    175.62187 
  155700  0.078353921    4368.2623  0.034021213    4368.4138    175.62082 
  155800  0.075381993    4368.2696  0.039064956    4368.4216    175.62182 
  155900  0.066209474    4368.2674  0.044924356    4368.4116    175.62101 
  156000  0.066384712    4368.2637  0.043265062    4368.4064    175.62129 
  156100  0.081023085    4368.2651  0.035536826     4368.422    175.62125 
  156200   0.08130436    4368.2678  0.040984466    4368.4307    175.62039 
  156300  0.078546933    4368.2642   0.04415807    4368.4261    175.61994 
  156400  0.077711133     4368.265  0.033506585     4368.415    175.62076 
  156500  0.078849153    4368.2649  0.030646852    4368.4137    175.62093 
  156600  0.062156132    4368.2627  0.030395577    4368.3862    175.62091 
  156700  0.053357897    4368.2634  0.032891305    4368.3762    175.62121 
  156800  0.068621824    4368.2691  0.036246346    4368.4082    175.62108 
  156900  0.063187486    4368.2632  0.037357422    4368.3952    175.62005 
  157000  0.067719127    4368.2605  0.034115383    4368.3962    175.62071 
  157100   0.07326321    4368.2635   0.03549363    4368.4088    175.62049 
  157200  0.066952262    4368.2633   0.04293633    4368.4066    175.62057 
  157300  0.078861314    4368.2579  0.035875054     4368.412    175.62123 
  157400  0.072890003     4368.265  0.042644533    4368.4169     175.6208 
  157500  0.078936346     4368.257  0.036274966    4368.4116    175.62136 
  157600  0.074205567    4368.2651  0.034465206    4368.4108    175.62055 
  157700  0.075976471    4368.2657  0.034283951    4368.4139    175.62056 
  157800  0.079771604    4368.2599    0.0506503    4368.4301    175.62094 
  157900  0.086123766    4368.2713  0.037322785    4368.4377    175.62169 
  158000  0.086326592    4368.2624  0.036237625     4368.428    175.62072 
  158100  0.081633665    4368.2694  0.041419192    4368.4332    175.62034 
  158200  0.085247399    4368.2669  0.043435496    4368.4381    175.62121 
  158300  0.068764291    4368.2644  0.051806571    4368.4193    175.61986 
  158400  0.071888771    4368.2683  0.041640601    4368.4177    175.62068 
  158500  0.074042667    4368.2701  0.034493788    4368.4155    175.61982 
  158600  0.068837626    4368.2622  0.039168012    4368.4046    175.62002 
  158700  0.066795579     4368.264  0.043422945    4368.4075    175.62071 
  158800  0.070679034     4368.264  0.036692329    4368.4067    175.62056 
  158900  0.075675822    4368.2665  0.032786356    4368.4127    175.62096 
  159000  0.076782858    4368.2694  0.043540819     4368.428    175.62133 
  159100  0.082252493    4368.2711    0.0398946    4368.4343    175.62021 
  159200  0.075213539    4368.2704  0.046225357    4368.4294    175.62079 
  159300  0.078777997     4368.265  0.031045581    4368.4141    175.62049 
  159400  0.075826277    4368.2692  0.039812187    4368.4227    175.62083 
  159500  0.080567851    4368.2622  0.038347813    4368.4213    175.61943 
  159600  0.077058532    4368.2653  0.037354366    4368.4182    175.62053 
  159700  0.075185794    4368.2687  0.040215658    4368.4216    175.62065 
  159800  0.071422725    4368.2676  0.033328313     4368.408    175.62054 
  159900  0.073751943    4368.2632  0.038494403    4368.4123    175.62063 
  160000  0.077185685    4368.2679  0.038882393    4368.4225    175.62055 
  160100  0.072742612    4368.2659  0.033069771     4368.408    175.62072 
  160200  0.078993526    4368.2583  0.043331402      4368.42    175.62149 
  160300  0.079482268    4368.2643  0.037835781    4368.4213    175.62083 
  160400  0.075882613     4368.268  0.030579268    4368.4123    175.62035 
  160500  0.076521498    4368.2626  0.034832394    4368.4122    175.62027 
  160600  0.081865484     4368.264  0.030961351    4368.4176    175.62061 
  160700  0.083029461     4368.266  0.040006853    4368.4304    175.62021 
  160800  0.084912766    4368.2644  0.033066857    4368.4248    175.62038 
  160900  0.086822843    4368.2685   0.04175886    4368.4404    175.62064 
  161000  0.087032289    4368.2669  0.044134271    4368.4415    175.62139 
  161100  0.084261749    4368.2591  0.043907976    4368.4293    175.62191 
  161200  0.075667251    4368.2662  0.046682836    4368.4263    175.61989 
  161300  0.072021525    4368.2542  0.039803333    4368.4019    175.62083 
  161400  0.076686345    4368.2678  0.034697434    4368.4174    175.62039 
  161500  0.068917654    4368.2649  0.044319965    4368.4125    175.62065 
  161600  0.069761245    4368.2676  0.030192122    4368.4023     175.6209 
  161700  0.074910041     4368.268  0.044763543     4368.425    175.62023 
  161800  0.076657139    4368.2677  0.041591537    4368.4242    175.62041 
  161900  0.078079056    4368.2635  0.029987801    4368.4105    175.62029 
  162000  0.072608289    4368.2684  0.036163868    4368.4134    175.62024 
  162100  0.069915317    4368.2698  0.036985376    4368.4115    175.62066 
  162200  0.077047061    4368.2694  0.033869559    4368.4187    175.62123 
  162300  0.068553962    4368.2634   0.04332382    4368.4094    175.62032 
  162400  0.071651678    4368.2666  0.023192528    4368.3971    175.62146 
  162500  0.068969541    4368.2673  0.029108587    4368.3997    175.62101 
  162600  0.069421111    4368.2698  0.037892683    4368.4117    175.62022 
  162700  0.080886522    4368.2704  0.038417953    4368.4301    175.62167 
  162800  0.084045472    4368.2671  0.030265443    4368.4233    175.62094 
  162900  0.079359473    4368.2656  0.039689383    4368.4242    175.62083 
  163000  0.079037106    4368.2624  0.038451104    4368.4193    175.62115 
  163100  0.078840172    4368.2689  0.040507821    4368.4276    175.62124 
  163200  0.077355975    4368.2627  0.046598381    4368.4253    175.62082 
  163300  0.078752568    4368.2681   0.04671288    4368.4328    175.61948 
  163400  0.080137813     4368.267  0.033365109    4368.4205    175.62093 
  163500  0.076501962    4368.2702  0.032516395    4368.4174    175.62103 
  163600  0.086839697    4368.2651  0.031157531    4368.4264    175.62111 
  163700  0.066605899    4368.2618  0.044312537     4368.406    175.62103 
  163800  0.070437903     4368.262  0.041935473    4368.4095    175.62125 
  163900  0.079691786    4368.2622  0.051037348    4368.4327    175.61946 
  164000  0.079933245    4368.2661   0.03423008    4368.4202    175.62054 
  164100  0.073998687    4368.2656  0.045944366    4368.4224    175.62025 
  164200  0.080570196    4368.2635  0.033106771    4368.4174    175.62033 
  164300  0.087014446    4368.2694   0.04113554    4368.4409    175.62134 
  164400  0.085269301    4368.2679  0.038981535    4368.4347     175.6217 
  164500  0.070571453    4368.2654  0.041944758    4368.4131    175.62015 
  164600  0.073833947    4368.2682   0.04208671     4368.421     175.6213 
  164700  0.076933562     4368.272  0.037996746    4368.4254    175.62105 
  164800  0.075160271    4368.2714   0.03422895    4368.4183    175.62181 
  164900  0.070199383     4368.266  0.035735115     4368.407    175.61963 
  165000  0.079754553    4368.2602  0.040264624      4368.42    175.62022 
  165100   0.07737897    4368.2681  0.035692068    4368.4198     175.6209 
  165200  0.070044262    4368.2691  0.048092053    4368.4221    175.62066 
  165300  0.073608237    4368.2605  0.040443724    4368.4112    175.62063 
  165400   0.06847566    4368.2707  0.047068517    4368.4204    175.62085 
  165500  0.074248386     4368.265  0.036796182    4368.4131    175.62049 
  165600  0.063848295    4368.2684  0.032509724    4368.3966     175.6204 
  165700  0.068923794    4368.2692  0.035605702    4368.4081    175.62107 
  165800  0.073523712    4368.2713  0.038820636    4368.4203    175.62056 
  165900  0.067201478    4368.2666  0.040221337    4368.4075    175.62182 
  166000  0.071729937    4368.2673  0.035600284    4368.4105    175.62114 
  166100  0.071891419    4368.2703  0.036492489    4368.4146    175.62125 
  166200  0.069158472    4368.2674   0.03812278    4368.4092    175.62053 
  166300  0.074931741    4368.2677   0.03477592    4368.4148    175.62042 
  166400  0.086151222    4368.2649  0.033938811     4368.428    175.62064 
  166500  0.082447361    4368.2655  0.038820686    4368.4279    175.62077 
  166600   0.07107667    4368.2701  0.044489575    4368.4211    175.62051 
  166700  0.074106553    4368.2608  0.043174831     4368.415    175.61983 
  166800  0.089423067    4368.2695  0.037521142    4368.4411    175.62134 
  166900  0.088068345    4368.2645  0.030160291    4368.4266    175.62061 
  167000  0.085896431    4368.2655  0.030900392    4368.4251    175.62094 
  167100  0.081701309    4368.2628  0.038699278     4368.424    175.62092 
  167200  0.083714125    4368.2661   0.04298824    4368.4345    175.62045 
  167300  0.075305771    4368.2706  0.038050575    4368.4215     175.6211 
  167400   0.08003609    4368.2686   0.03901778    4368.4276    175.62024 
  167500  0.075469067    4368.2725  0.038369198    4368.4239    175.61991 
  167600  0.078138675    4368.2696   0.03820639    4368.4249    175.62059 
  167700   0.07949417    4368.2684  0.027617093    4368.4152    175.62154 
  167800  0.081683908    4368.2683  0.032700823    4368.4234    175.62073 
  167900  0.077395756    4368.2659  0.027626449    4368.4096    175.61982 
  168000  0.069617202     4368.266  0.040194068    4368.4105    175.62065 
  168100  0.074321699    4368.2659  0.032042574    4368.4093     175.6209 
  168200  0.063283513    4368.2671  0.045319498    4368.4073    175.62067 
  168300  0.072817779    4368.2654  0.035144801    4368.4096    175.62142 
  168400  0.079705779    4368.2635  0.044159783    4368.4272    175.62002 
  168500  0.077727228    4368.2693  0.041412223    4368.4272    175.62065 
  168600  0.082929747    4368.2748  0.040698226    4368.4398    175.62036 
  168700  0.080003973    4368.2648  0.039554689    4368.4242    175.62122 
  168800  0.077935072    4368.2728  0.037321705    4368.4269    175.62049 
  168900  0.081601033     4368.272  0.051206941    4368.4455    175.61969 
  169000  0.091664754    4368.2664  0.046088324    4368.4498    175.62068 
  169100  0.082919035     4368.268  0.043630516    4368.4359    175.62003 
  169200  0.073055872     4368.271   0.04449989     4368.425    175.62104 
  169300  0.069075912    4368.2709  0.040524564     4368.415    175.62127 
  169400  0.075612461    4368.2693  0.037875468    4368.4205    175.62005 
  169500  0.070665953    4368.2749  0.040696986    4368.4215    175.62108 
  169600  0.068862132    4368.2692  0.047975591    4368.4204    175.62018 
  169700  0.075348521    4368.2691  0.044885207    4368.4269    175.62047 
  169800  0.066917232    4368.2622   0.04263146    4368.4052     175.6216 
  169900  0.078768742    4368.2647  0.048719919    4368.4315    175.61961 
  170000  0.078183682    4368.2712  0.049333244    4368.4377     175.6204 
  170100  0.072737997    4368.2688  0.045638477    4368.4234    175.61993 
  170200  0.068347075    4368.2568  0.037351126    4368.3966    175.62076 
  170300  0.075596218    4368.2668  0.033962574    4368.4141    175.62016 
  170400  0.073927548    4368.2654  0.044452489    4368.4207    175.62034 
  170500  0.069099842    4368.2607  0.036839116    4368.4011    175.62063 
  170600  0.071737251     4368.271  0.039860351    4368.4183     175.6199 
  170700  0.078714743     4368.265  0.039271321    4368.4223     175.6206 
  170800  0.083492001    4368.2671  0.038918333    4368.4311    175.61979 
  170900  0.077366871     4368.268  0.035677735    4368.4196    175.61984 
  171000  0.066645465     4368.264  0.042758858    4368.4067    175.62046 
  171100  0.070274851    4368.2726  0.036707992    4368.4146    175.62033 
  171200   0.07150787     4368.265  0.033375185    4368.4055    175.62054 
  171300  0.070607968    4368.2664  0.040436195    4368.4127    175.62019 
  171400  0.069039904    4368.2715  0.039934456    4368.4149    175.62042 
  171500  0.083929257    4368.2669  0.038329393     4368.431    175.62042 
  171600  0.082698567    4368.2671  0.040846864    4368.4319    175.62076 
  171700  0.079712111    4368.2719  0.048247674    4368.4397     175.6208 
  171800  0.079166541    4368.2631  0.047391124    4368.4291    175.62006 
  171900  0.076850737    4368.2733  0.044439886    4368.4329     175.6203 
  172000  0.070862943    4368.2707  0.044587914    4368.4215    175.62008 
  172100  0.080726416    4368.2689   0.03442959    4368.4244    175.62107 
  172200  0.078520087    4368.2737  0.035871469    4368.4272    175.62074 
  172300  0.069261924    4368.2671  0.046821354    4368.4177     175.6204 
  172400   0.07448899    4368.2664  0.042895199     4368.421     175.6212 
  172500  0.071388192    4368.2661  0.043008884    4368.4162    175.62016 
  172600  0.069095689    4368.2671  0.037341732     4368.408    175.62103 
  172700  0.066098785     4368.265  0.025706009    4368.3898    175.62034 
  172800  0.066361284    4368.2627  0.031221517    4368.3934    175.62101 
  172900  0.059091692    4368.2733  0.036936511    4368.3988    175.62061 
  173000  0.081483937    4368.2722  0.033048355    4368.4274     175.6201 
  173100   0.06750463    4368.2713  0.041881231    4368.4143    175.62037 
  173200  0.071738017    4368.2635   0.04393439    4368.4149    175.61984 
  173300  0.084854996    4368.2708  0.036708247    4368.4347    175.62012 
  173400  0.081040348    4368.2706  0.037715684    4368.4297    175.61981 
  173500   0.07464924    4368.2675  0.043992258    4368.4234    175.62058 
  173600  0.067548965    4368.2641  0.040667832     4368.406    175.62184 
  173700  0.071538442    4368.2691  0.047109987    4368.4234     175.6212 
  173800  0.081934189    4368.2614  0.049093583    4368.4333    175.62076 
  173900  0.072981316    4368.2537  0.046222643    4368.4093    175.62038 
  174000  0.073238977    4368.2634  0.043243722    4368.4164    175.61972 
  174100  0.079649891    4368.2516  0.040756722    4368.4118    175.62022 
  174200  0.080660219    4368.2688   0.03525627    4368.4249    175.61989 
  174300  0.071146661     4368.274  0.039559688    4368.4202    175.62027 
  174400  0.076874564    4368.2636  0.033179962     4368.412    175.62079 
  174500  0.070616921    4368.2689  0.042212367     4368.417    175.62065 
  174600  0.084988558    4368.2629  0.036533657    4368.4268    175.62056 
  174700  0.072605482    4368.2733  0.037147947    4368.4193    175.61988 
  174800  0.068108947    4368.2677  0.036105343    4368.4059    175.62092 
  174900  0.073738119    4368.2674  0.033115736    4368.4111    175.62047 
  175000  0.071726419    4368.2692  0.040613064    4368.4173    175.62127 
  175100    0.0667646    4368.2662  0.042544985    4368.4088    175.62063 
  175200  0.077403566    4368.2682  0.040432371    4368.4246    175.62151 
  175300  0.075209713    4368.2703  0.042806081    4368.4258       175.62 
  175400  0.070102532    4368.2737   0.03867613    4368.4174    175.62121 
  175500  0.070414328    4368.2666  0.034337195    4368.4064     175.6208 
  175600  0.064458148    4368.2645   0.04138249    4368.4025    175.62048 
  175700   0.06683563    4368.2692  0.041166171    4368.4105     175.6208 
  175800  0.077780313     4368.262  0.042358873     4368.421     175.6196 
  175900  0.073405158    4368.2734  0.039227095    4368.4226    175.62128 
  176000  0.081953376    4368.2653  0.044882937     4368.433    175.62066 
  176100  0.090107191    4368.2674  0.044058511    4368.4466    175.62077 
  176200  0.085449751    4368.2693  0.037964189    4368.4354    175.62045 
  176300  0.077510359    4368.2649  0.046511847    4368.4276    175.62061 
  176400  0.066597991    4368.2678  0.039821188    4368.4074    175.62014 
  176500  0.067643212    4368.2671  0.039676211    4368.4082    175.62029 
  176600  0.067398024    4368.2684  0.043023654    4368.4125    175.61992 
  176700  0.070618093     4368.268  0.031597309    4368.4055    175.62047 
  176800  0.069659886    4368.2685  0.037622189    4368.4105    175.62074 
  176900  0.072785746    4368.2644  0.037146695    4368.4107    175.62073 
  177000  0.071989194    4368.2642  0.039879855     4368.412    175.62016 
  177100   0.07909826    4368.2731  0.039131562    4368.4307     175.6197 
  177200  0.082743744    4368.2714  0.045298555    4368.4408    175.62051 
  177300  0.081215684    4368.2706  0.037565756    4368.4299    175.62045 
  177400  0.074901872    4368.2672  0.040235305    4368.4197    175.61981 
  177500  0.076603907    4368.2695  0.034097193    4368.4184    175.61985 
  177600  0.074857322    4368.2682  0.040631861     4368.421    175.62005 
  177700  0.057812555    4368.2743  0.036660881    4368.3976    175.61996 
  177800   0.06310888    4368.2704  0.035481648    4368.4005    175.62042 
  177900  0.072742016    4368.2682  0.033967235    4368.4112    175.61982 
  178000  0.077704188    4368.2664  0.036009487    4368.4189    175.62072 
  178100  0.076445096    4368.2684  0.046205825    4368.4292    175.62091 
  178200  0.084300357    4368.2666  0.037490666    4368.4304    175.61988 
  178300  0.074117518    4368.2728  0.040612824    4368.4245    175.62072 
  178400  0.079003584    4368.2663  0.037838621    4368.4226     175.6207 
  178500  0.081426586    4368.2705  0.036046143    4368.4286    175.62092 
  178600   0.07641693    4368.2712   0.03349019    4368.4192    175.62057 
  178700  0.075405056    4368.2687  0.033498522    4368.4152    175.62098 
  178800  0.068457153    4368.2695  0.039190559    4368.4113    175.62001 
  178900  0.084952143     4368.267  0.030297753    4368.4246    175.62116 
  179000  0.071683896    4368.2679  0.037378227    4368.4127    175.62083 
  179100   0.07883787    4368.2628  0.031713998    4368.4127    175.61957 
  179200  0.082931114    4368.2575  0.029577084    4368.4114    175.62073 
  179300  0.082931363    4368.2641  0.042722036    4368.4312    175.62116 
  179400  0.094949264    4368.2624  0.032151988    4368.4368    175.62083 
  179500  0.071872102    4368.2668    0.0423737    4368.4169    175.62089 
  179600  0.080281845    4368.2711  0.031416872    4368.4229    175.62126 
  179700  0.088875872    4368.2637  0.038098099     4368.435    175.62087 
  179800  0.084057419     4368.266  0.034141291    4368.4261      175.621 
  179900  0.075699974    4368.2684  0.043318618    4368.4252    175.61977 
  180000  0.076461908    4368.2684  0.032762951    4368.4157    175.62014 
  180100   0.07991703    4368.2711  0.031283391    4368.4222    175.62045 
  180200  0.069854938    4368.2649  0.039110305    4368.4087    175.61985 
  180300   0.06829181    4368.2642  0.038427439     4368.405    175.62065 
  180400  0.073100198    4368.2705  0.035408911    4368.4155    175.62099 
  180500  0.076743702    4368.2676  0.032784269    4368.4154    175.62123 
  180600  0.067542571    4368.2678  0.032825239    4368.4019    175.62118 
  180700  0.068960525    4368.2629  0.030150443    4368.3965    175.62107 
  180800   0.07261923    4368.2666  0.035064498    4368.4105    175.62034 
  180900  0.075354966    4368.2695  0.028083434    4368.4105    175.62079 
  181000  0.069038538    4368.2656  0.045184051    4368.4143    175.62109 
  181100  0.078397855    4368.2733  0.037720313    4368.4285    175.62131 
  181200  0.068888373     4368.263   0.03589635    4368.4022    175.62054 
  181300  0.068683954    4368.2659  0.038680261    4368.4075    175.62099 
  181400  0.068988194    4368.2751  0.039120717    4368.4176    175.62038 
  181500  0.071156131    4368.2676  0.040451517    4368.4147    175.62243 
  181600   0.07202469    4368.2712  0.042040063    4368.4212    175.62047 
  181700  0.083741936    4368.2655  0.041435284    4368.4325    175.62061 
  181800  0.068256172    4368.2664   0.04199599    4368.4107    175.62083 
  181900  0.063362874    4368.2635   0.03564102    4368.3941     175.6202 
  182000  0.065399804    4368.2658  0.042659267    4368.4065    175.62079 
  182100    0.0798365    4368.2605  0.029722475    4368.4099    175.62084 
  182200  0.068523331    4368.2605  0.039669196    4368.4028    175.61957 
  182300  0.075733837    4368.2654   0.03122308    4368.4102    175.62046 
  182400  0.081197293    4368.2754  0.029225678    4368.4263    175.62153 
  182500  0.065912891    4368.2638  0.039016121    4368.4016    175.61995 
  182600  0.068171271    4368.2606  0.042441926    4368.4052    175.62058 
  182700  0.063861166    4368.2603  0.037319705    4368.3933    175.62081 
  182800  0.069253833    4368.2688  0.035465577     4368.408    175.62017 
  182900  0.075754444    4368.2639   0.02943516    4368.4069    175.62033 
  183000  0.070419859    4368.2626  0.034639617    4368.4028    175.61989 
  183100    0.0779709    4368.2698  0.031139033    4368.4178    175.62126 
  183200  0.076060337    4368.2696  0.035876529    4368.4195    175.62099 
  183300  0.070799463    4368.2702  0.046107895    4368.4225    175.62008 
  183400  0.078681397    4368.2653  0.034819565     4368.418    175.62057 
  183500  0.073092199    4368.2621   0.04250156    4368.4141    175.62002 
  183600  0.082320285    4368.2675  0.042897334    4368.4337    175.62111 
  183700  0.076284092    4368.2706  0.039395331    4368.4243     175.6192 
  183800  0.079586073    4368.2673  0.036478128    4368.4231    175.62144 
  183900  0.088737786    4368.2688  0.034549369    4368.4364    175.61976 
  184000  0.081435887    4368.2584  0.035949881    4368.4164    175.62083 
  184100  0.078783879    4368.2682  0.029336973    4368.4156    175.62076 
  184200  0.076342707    4368.2648  0.039574111    4368.4188    175.62108 
  184300  0.079695723    4368.2706  0.035931054     4368.426    175.62077 
  184400  0.074318824    4368.2732  0.040096409    4368.4247     175.6199 
  184500  0.076525472    4368.2701  0.035733921    4368.4205    175.62034 
  184600  0.083850039    4368.2719  0.030751648    4368.4283    175.62029 
  184700  0.069982759    4368.2708  0.036450117    4368.4121    175.62163 
  184800  0.079812154    4368.2693  0.037258106    4368.4262    175.62042 
  184900   0.06641118    4368.2655  0.048814866    4368.4138     175.6203 
  185000  0.065697584    4368.2699  0.040565041    4368.4089     175.6214 
  185100  0.070084923    4368.2714  0.037529444     4368.414    175.62048 
  185200  0.070029468    4368.2671  0.033747424    4368.4058    175.62017 
  185300  0.064831189    4368.2706  0.038005079    4368.4058    175.62063 
  185400  0.072914425     4368.263  0.039045087    4368.4113    175.61985 
  185500  0.076994094    4368.2749   0.03242626    4368.4227    175.62025 
  185600  0.082922234    4368.2726  0.029641306    4368.4266    175.62039 
  185700  0.077207825    4368.2731  0.034881001    4368.4237    175.62035 
  185800  0.075235095    4368.2719  0.041322134     4368.426    175.61947 
  185900  0.081802879    4368.2719  0.040234367    4368.4348    175.62113 
  186000  0.084867337     4368.271  0.037901463    4368.4361    175.62018 
  186100  0.081871005    4368.2693   0.04753122    4368.4396    175.61991 
  186200  0.078427421    4368.2691  0.039995561    4368.4266    175.62101 
  186300  0.070569602    4368.2659  0.036501366    4368.4082    175.62018 
  186400  0.075068086     4368.269  0.031116421    4368.4126     175.6207 
  186500  0.067960274    4368.2645  0.029216781    4368.3956    175.62145 
  186600  0.070081779    4368.2706  0.036274024    4368.4119    175.61984 
  186700  0.071317558    4368.2729  0.039831748    4368.4196     175.6208 
  186800  0.063363764    4368.2629  0.047319676    4368.4052     175.6201 
  186900  0.071650717    4368.2722  0.041492145     4368.421    175.62033 
  187000  0.069453599    4368.2732  0.040113053    4368.4174       175.62 
  187100  0.074129356    4368.2661     0.036077    4368.4133    175.62078 
  187200  0.075915267    4368.2668  0.033880605    4368.4145    175.62002 
  187300  0.075587641    4368.2712  0.030758501    4368.4152      175.621 
  187400   0.06684354    4368.2656  0.036290366    4368.4021    175.62054 
  187500  0.072749103    4368.2686  0.031255659    4368.4089     175.6206 
  187600  0.070568875    4368.2624  0.036744176    4368.4049    175.62126 
  187700  0.075882526    4368.2618  0.033414198     4368.409    175.62135 
  187800  0.074712047    4368.2664    0.0339906    4368.4124    175.62058 
  187900  0.078197703    4368.2692  0.034316398    4368.4207    175.62107 
  188000  0.067243454    4368.2699  0.037654195    4368.4083    175.62033 
  188100  0.072005411    4368.2702  0.029891605     4368.408    175.62056 
  188200  0.073114663    4368.2624  0.034303202    4368.4063    175.62074 
  188300    0.0731482    4368.2658  0.041808642    4368.4172      175.621 
  188400  0.068752878     4368.268  0.043052188    4368.4141    175.62021 
  188500  0.072683978    4368.2648  0.041394017    4368.4152    175.62023 
  188600  0.069199117    4368.2746  0.035942224    4368.4142    175.61964 
  188700  0.076299797    4368.2642  0.037407524     4368.416    175.62088 
  188800  0.077164571    4368.2681  0.040616518    4368.4244    175.62002 
  188900  0.080003823    4368.2664  0.037020375    4368.4233    175.62196 
  189000  0.084183252    4368.2656  0.041176283     4368.433    175.62082 
  189100  0.084122065    4368.2686  0.041501938    4368.4362    175.62044 
  189200  0.080334049    4368.2656  0.032342055    4368.4183    175.62043 
  189300  0.078702561    4368.2636   0.03273582    4368.4143    175.62121 
  189400  0.083254021      4368.27  0.041654455    4368.4365    175.62012 
  189500  0.084781695    4368.2678  0.041409589    4368.4363    175.61972 
  189600  0.076848562    4368.2607   0.03662208    4368.4125    175.62113 
  189700  0.071529662    4368.2719  0.039925657     4368.419    175.62093 
  189800  0.079853973    4368.2709  0.035369249    4368.4259    175.62068 
  189900  0.079901173    4368.2654  0.038863652     4368.424    175.61961 
  190000  0.074894711    4368.2675  0.028869773    4368.4086    175.62133 
  190100  0.079943807    4368.2694   0.03286777    4368.4221    175.61977 
  190200  0.071479197    4368.2671  0.041879842    4368.4161    175.62074 
  190300  0.078276097    4368.2655  0.039169057     4368.422    175.62055 
  190400  0.080624743     4368.267   0.04081496    4368.4286     175.6208 
  190500  0.072422234    4368.2671  0.046778233    4368.4224     175.6203 
  190600  0.074292033    4368.2653  0.038053003    4368.4147    175.62037 
  190700  0.076204011    4368.2623   0.04280989    4368.4193    175.61955 
  190800  0.092193224    4368.2602  0.031132271    4368.4295     175.6206 
  190900  0.076732205    4368.2696   0.03460115    4368.4192    175.62041 
  191000  0.080793721    4368.2623    0.0394405    4368.4229    175.61976 
  191100  0.080679722     4368.264  0.035368885    4368.4203    175.62081 
  191200  0.077825786    4368.2617  0.033826204    4368.4122    175.62094 
  191300  0.085200563      4368.27  0.038560814    4368.4363    175.62011 
  191400   0.08688127    4368.2603  0.044183578    4368.4347    175.62164 
  191500  0.099879464    4368.2656  0.033639662    4368.4489    175.62117 
  191600  0.078239615    4368.2687  0.041433702    4368.4274    175.62061 
  191700  0.084890196    4368.2632  0.041037655    4368.4315    175.62093 
  191800  0.071188045    4368.2724  0.035697646    4368.4148     175.6196 
  191900   0.07154682    4368.2677  0.045802657    4368.4207    175.62052 
  192000  0.071788662    4368.2743  0.047726112    4368.4296    175.61975 
  192100    0.0763893    4368.2598  0.034600969    4368.4089    175.62079 
  192200  0.072124469    4368.2624  0.034829561    4368.4053    175.62095 
  192300  0.071941393    4368.2683  0.035942023    4368.4121    175.62068 
  192400  0.072273856    4368.2636  0.034958889    4368.4069    175.62164 
  192500  0.065987238    4368.2678  0.037081227    4368.4038    175.61991 
  192600    0.0708315    4368.2688  0.031148875    4368.4061    175.62081 
  192700  0.055750583    4368.2709  0.050137966    4368.4046    175.62039 
  192800  0.073755802    4368.2646  0.039922941     4368.415     175.6206 
  192900  0.074535323    4368.2659  0.031476817    4368.4091    175.61974 
  193000  0.076191901    4368.2651   0.03035862    4368.4097     175.6209 
  193100  0.076005295    4368.2686  0.033573503    4368.4161    175.62092 
  193200  0.075981069    4368.2674  0.038123304    4368.4194    175.62044 
  193300  0.080516773    4368.2707  0.036577432    4368.4279    175.62096 
  193400  0.089124601    4368.2663  0.041043501    4368.4409    175.62056 
  193500  0.090134025    4368.2664  0.042231988    4368.4437    175.62004 
  193600  0.083625041    4368.2698  0.044353557    4368.4395    175.62086 
  193700   0.08175974    4368.2643  0.046928175    4368.4337    175.61989 
  193800  0.073263847    4368.2676  0.034264343    4368.4117    175.62062 
  193900  0.070731259    4368.2693  0.041639404     4368.417     175.6201 
  194000  0.072736964    4368.2647  0.048353004    4368.4221    175.62038 
  194100  0.072181027    4368.2668  0.030242058    4368.4053    175.62039 
  194200  0.068931944    4368.2697   0.03731132    4368.4103    175.62119 
  194300  0.071655219    4368.2661  0.035443518    4368.4089      175.621 
  194400  0.070159075    4368.2682  0.029666637     4368.403    175.62141 
  194500  0.073731628    4368.2692  0.036138819    4368.4159    175.62075 
  194600   0.07793917    4368.2647  0.042121757    4368.4237    175.62031 
  194700   0.07530367    4368.2616  0.034590395     4368.409    175.62085 
  194800  0.076923163    4368.2713  0.033563789    4368.4201    175.62045 
  194900  0.069283131    4368.2629  0.037623231    4368.4044    175.62047 
  195000  0.072279631     4368.259  0.029265686    4368.3966    175.62004 
  195100  0.073945726    4368.2671  0.037490065    4368.4154    175.62021 
  195200  0.073697481    4368.2662  0.044556344    4368.4213    175.62032 
  195300  0.079637511    4368.2683  0.030626367    4368.4183     175.6215 
  195400  0.066973754    4368.2639  0.034190876    4368.3985    175.62083 
  195500  0.078710514    4368.2666  0.050088766    4368.4347    175.62149 
  195600  0.081906224    4368.2635  0.038565291    4368.4249    175.62089 
  195700  0.066190986    4368.2652  0.042665837    4368.4071    175.61935 
  195800  0.063811122    4368.2663  0.038631073    4368.4006    175.62115 
  195900  0.066708041    4368.2645  0.029860724    4368.3944    175.62098 
  196000  0.064356581    4368.2702  0.028343917     4368.395    175.62008 
  196100  0.066389331    4368.2695  0.035371661    4368.4043    175.62055 
  196200  0.070649488    4368.2633  0.034856622    4368.4041    175.61972 
  196300  0.079007218    4368.2683  0.036483913    4368.4232    175.62049 
  196400  0.070141794    4368.2642  0.040702841    4368.4101    175.62117 
  196500  0.083442864    4368.2703  0.034017591    4368.4294    175.62085 
  196600  0.075526941    4368.2701  0.041284095    4368.4246    175.62104 
  196700  0.068265884    4368.2716  0.039122423     4368.413    175.62134 
  196800  0.064336501    4368.2729  0.039741425     4368.409    175.62026 
  196900  0.069070723    4368.2715   0.02972625    4368.4047    175.62099 
  197000  0.069230294    4368.2628  0.041702994    4368.4083    175.62044 
  197100  0.068899764    4368.2686  0.052363257    4368.4242    175.62066 
  197200  0.077007248    4368.2685  0.039548734    4368.4235    175.62134 
  197300  0.065232956    4368.2726   0.04397074    4368.4144     175.6203 
  197400  0.073360498    4368.2723  0.037035347    4368.4193     175.6201 
  197500   0.07557385    4368.2676  0.039024316    4368.4199     175.6214 
  197600  0.074995883     4368.263  0.032887232    4368.4083    175.62026 
  197700   0.07330968    4368.2711  0.044991809     4368.426    175.61914 
  197800  0.073616438    4368.2721  0.035420714    4368.4178    175.62077 
  197900  0.074396092    4368.2646  0.035008944    4368.4111    175.61954 
  198000  0.068265487     4368.268  0.050992978    4368.4213    175.62168 
  198100  0.074981071    4368.2668  0.038673294    4368.4178    175.62038 
  198200  0.067228807    4368.2652  0.035815259    4368.4017    175.62151 
  198300  0.068046864    4368.2725  0.039649176    4368.4142    175.62001 
  198400  0.068080973    4368.2668  0.029736677    4368.3985    175.62069 
  198500  0.076743735    4368.2695  0.031323996    4368.4159    175.62134 
  198600    0.0754974    4368.2715  0.031906252    4368.4166    175.62005 
  198700  0.079146681     4368.264  0.031973092    4368.4146    175.62136 
  198800  0.080398386    4368.2597  0.035837085     4368.416    175.62053 
  198900  0.073999168    4368.2633  0.033786788     4368.408    175.62071 
  199000  0.074434036    4368.2704  0.035915639    4368.4178    175.62122 
  199100  0.077839337    4368.2712  0.031297471    4368.4191    175.62118 
  199200  0.075454783    4368.2672  0.042179034    4368.4224    175.62091 
  199300  0.080491061    4368.2618  0.035609794     4368.418    175.62089 
  199400  0.085319973    4368.2665  0.033407557    4368.4278    175.62086 
  199500   0.06642509    4368.2655  0.047519668    4368.4125    175.61985 
  199600  0.078843032    4368.2672  0.043850922    4368.4292    175.62019 
  199700  0.073584943    4368.2692  0.043986751    4368.4235      175.621 
  199800   0.08862419    4368.2706  0.039734834    4368.4432     175.6222 
  199900  0.070709718    4368.2713  0.039120226    4368.4164    175.62077 
  200000  0.063743647    4368.2582  0.037007992    4368.3907    175.62067 
  200100  0.074847079    4368.2606  0.035219739     4368.408    175.62049 
  200200  0.079968964    4368.2584  0.027938371    4368.4062    175.62065 
  200300  0.088593227     4368.266  0.030802898    4368.4296     175.6223 
  200400  0.072804625    4368.2684  0.036775528    4368.4143    175.62168 
  200500  0.064731589    4368.2691  0.041703507    4368.4079    175.62029 
  200600  0.089027028    4368.2664  0.036466942    4368.4363    175.62079 
  200700  0.085620102    4368.2645  0.034417261    4368.4272    175.62069 
  200800    0.0885128    4368.2625  0.045929086    4368.4411    175.62098 
  200900  0.086422504    4368.2606  0.043049465    4368.4332    175.62064 
  201000  0.080296073    4368.2706  0.050466298    4368.4414    175.62049 
  201100   0.07699828    4368.2681  0.037465232     4368.421    175.62124 
  201200  0.068376845    4368.2655  0.044362644    4368.4123    175.62092 
  201300  0.084815538    4368.2608  0.040296853    4368.4282    175.62095 
  201400  0.062283302    4368.2694  0.040014608    4368.4027    175.62099 
  201500  0.083880628    4368.2616   0.02988511    4368.4172    175.62063 
  201600  0.075219297    4368.2696  0.051186818    4368.4335    175.62173 
  201700  0.084261582    4368.2647  0.050440168    4368.4414    175.61997 
  201800  0.081250319    4368.2586  0.046548702    4368.4269     175.6217 
  201900  0.080852474    4368.2694  0.036971522    4368.4276    175.62105 
  202000  0.088936399    4368.2635  0.032875672    4368.4297    175.62037 
  202100  0.079948393    4368.2734  0.040639595    4368.4339    175.62087 
  202200   0.07249717    4368.2698  0.043730202    4368.4222    175.61972 
  202300  0.073654176    4368.2661  0.035040271    4368.4115    175.62072 
  202400  0.075872795    4368.2636  0.038169547    4368.4155    175.62068 
  202500  0.084445274    4368.2672  0.043058299    4368.4369    175.62046 
  202600  0.086134412    4368.2643  0.040380228    4368.4338    175.62011 
  202700  0.076358216    4368.2653  0.033789322    4368.4135    175.61999 
  202800   0.06640431    4368.2674  0.044246392    4368.4112    175.62013 
  202900  0.073748483      4368.27  0.051709783    4368.4323    175.62023 
  203000   0.08348701    4368.2641  0.042318927    4368.4316    175.62097 
  203100  0.078448641    4368.2609  0.040896981    4368.4194    175.62032 
  203200   0.06318233    4368.2673  0.030080817    4368.3921    175.62028 
  203300  0.065389618    4368.2703  0.035490789    4368.4038    175.62132 
  203400  0.071339666    4368.2695  0.042539293     4368.419    175.62055 
  203500  0.076484632    4368.2637  0.043023958    4368.4213    175.62134 
  203600  0.080631318    4368.2691  0.041327096    4368.4313    175.62131 
  203700  0.078282834    4368.2622  0.048848155    4368.4284    175.62109 
  203800  0.074250309    4368.2644  0.038401829    4368.4141    175.62086 
  203900  0.076380177    4368.2607  0.041763074    4368.4169     175.6218 
  204000  0.082571532    4368.2569  0.034493855    4368.4151     175.6214 
  204100  0.078119447     4368.257  0.036006798    4368.4101    175.62123 
  204200   0.08902554    4368.2597  0.033168984    4368.4263    175.62098 
  204300  0.082561136    4368.2651  0.042135983     4368.431    175.62145 
  204400  0.081237456    4368.2591  0.031371044    4368.4122    175.62145 
  204500  0.074557685    4368.2558  0.036079137    4368.4036    175.62061 
  204600  0.077348166    4368.2661  0.034426315    4368.4165    175.62079 
  204700  0.074084907    4368.2715  0.034554982    4368.4171    175.62065 
  204800  0.083333106    4368.2589  0.028091516    4368.4119    175.62199 
  204900  0.084536895     4368.266  0.029901361    4368.4226    175.62138 
  205000  0.083091091    4368.2658  0.026335366    4368.4167    175.62105 
  205100  0.070347071    4368.2664  0.038493135    4368.4104    175.62006 
  205200  0.078436302    4368.2708  0.034326511    4368.4227    175.62154 
  205300  0.076716164    4368.2631  0.033217826    4368.4113    175.62144 
  205400  0.075087898    4368.2634  0.037495979    4368.4135    175.62081 
  205500  0.072317559    4368.2699  0.040042828    4368.4184    175.61977 
  205600  0.076193783    4368.2659  0.031905807     4368.412    175.62125 
  205700  0.069804476    4368.2687  0.041207746    4368.4145    175.62042 
  205800  0.074274298    4368.2629  0.040488717    4368.4147    175.62036 
  205900  0.072345941    4368.2655    0.0264667    4368.4004    175.62108 
  206000  0.075864999    4368.2706  0.030118624    4368.4144    175.62092 
  206100  0.081580011    4368.2691  0.037967914    4368.4294    175.62047 
  206200  0.087767223    4368.2685  0.032748845    4368.4328    175.62071 
  206300  0.081379842     4368.267  0.036552925    4368.4255    175.62036 
  206400  0.073737336    4368.2632  0.032629572    4368.4064    175.62044 
  206500  0.070660284    4368.2653  0.037062181    4368.4083       175.62 
  206600  0.080448895    4368.2661  0.036983545    4368.4237    175.62132 
  206700  0.076120284    4368.2689  0.038089966     4368.421    175.62071 
  206800  0.081655056    4368.2679  0.044080152    4368.4343    175.61997 
  206900  0.074612311    4368.2705  0.039814879    4368.4221    175.62076 
  207000  0.070438348    4368.2696  0.040366358    4368.4155    175.61875 
  207100  0.069986582    4368.2624  0.044607594     4368.412    175.61944 
  207200   0.07723131    4368.2703  0.040576648    4368.4266    175.62074 
  207300  0.076850413     4368.263  0.045541027    4368.4238     175.6207 
  207400  0.077289402    4368.2673  0.037020017    4368.4201    175.62055 
  207500  0.085300552    4368.2608  0.041938793    4368.4306    175.62046 
  207600  0.085460878    4368.2612  0.040280865    4368.4296    175.62084 
  207700  0.084212297     4368.259  0.037206285    4368.4225    175.61947 
  207800  0.070964071    4368.2626  0.036908865    4368.4059    175.62057 
  207900  0.076699489    4368.2648  0.032882715    4368.4126    175.62071 
  208000    0.0781135    4368.2678  0.039312862    4368.4242    175.62126 
  208100  0.063166482    4368.2656   0.04041231    4368.4006    175.61977 
  208200  0.077970841    4368.2608  0.031578169    4368.4093    175.62108 
  208300   0.07697641    4368.2628   0.04060949    4368.4187    175.62016 
  208400  0.072088992    4368.2663  0.043435744    4368.4178    175.62025 
  208500  0.071623753    4368.2718  0.035444489    4368.4146    175.62116 
  208600  0.067088055    4368.2653  0.034421036    4368.4002    175.61982 
  208700  0.072613713    4368.2636  0.036648348    4368.4091    175.62061 
  208800  0.078186534    4368.2646  0.036022665    4368.4178    175.62083 
  208900   0.08631027    4368.2652  0.030334982    4368.4249    175.62145 
  209000  0.069390166    4368.2613  0.035109443    4368.4004    175.62091 
  209100  0.074829298    4368.2701   0.03854113    4368.4208    175.62049 
  209200   0.08311557    4368.2699  0.042620886    4368.4371    175.61972 
  209300  0.078971245    4368.2627  0.032338631    4368.4134    175.62118 
  209400  0.078286641    4368.2586  0.042662768    4368.4186    175.62107 
  209500  0.075078375    4368.2622  0.036794798    4368.4115    175.62049 
  209600  0.076433921    4368.2624  0.036336069    4368.4133    175.62129 
  209700  0.067280714    4368.2666  0.032714874    4368.4002    175.62145 
  209800  0.065101636    4368.2702  0.039524599    4368.4073    175.62025 
  209900  0.072439257     4368.265  0.034523546    4368.4081    175.62145 
  210000   0.07527346    4368.2725  0.041121879    4368.4264    175.62139 
  210100    0.0785319     4368.261  0.043475425    4368.4222    175.61961 
  210200  0.068354705    4368.2642   0.04088223    4368.4076    175.62158 
  210300  0.079452942    4368.2695  0.038433565     4368.427    175.62104 
  210400   0.07284402    4368.2662   0.04064239     4368.416    175.62067 
  210500  0.073887294     4368.266   0.03976875    4368.4165    175.62109 
  210600  0.079840694     4368.257  0.032255111     4368.409    175.62059 
  210700  0.087851431    4368.2635  0.034808325      4368.43     175.6215 
  210800  0.074529819     4368.262  0.038430169    4368.4122    175.62119 
  210900  0.072714953    4368.2683  0.034263387    4368.4115    175.62072 
  211000  0.069888954    4368.2644  0.038338679    4368.4075    175.62082 
  211100  0.064071514    4368.2601  0.040399465    4368.3965    175.62047 
  211200  0.080442281    4368.2692  0.033108952    4368.4229     175.6201 
  211300  0.073877408    4368.2681   0.04553248    4368.4243    175.62061 
  211400   0.07589372    4368.2628  0.031808963    4368.4084    175.62049 
  211500  0.072655841    4368.2664   0.03848136    4368.4137    175.62022 
  211600  0.069310694    4368.2642  0.026973207    4368.3951    175.62014 
  211700  0.077090614    4368.2643  0.032010798    4368.4119    175.62056 
  211800  0.067738938    4368.2683  0.044167785     4368.414    175.62112 
  211900  0.075327828     4368.264  0.039442838    4368.4163    175.62049 
  212000  0.079920862    4368.2566  0.040652098     4368.417    175.62159 
  212100  0.068701808    4368.2624  0.039176057    4368.4045    175.62134 
  212200  0.070634972    4368.2717  0.040791748    4368.4183    175.62016 
  212300  0.065621253    4368.2543  0.041877663    4368.3946    175.62083 
  212400  0.076794821     4368.265  0.035010493    4368.4151    175.61994 
  212500  0.079623584    4368.2621  0.032929039    4368.4144    175.62058 
  212600  0.077320715    4368.2671  0.034251177    4368.4173    175.62024 
  212700  0.083083315    4368.2588  0.038277942    4368.4216    175.62048 
  212800  0.081912776    4368.2645  0.041617324    4368.4289       175.62 
  212900  0.073503071    4368.2638  0.039407301    4368.4134     175.6203 
  213000  0.081319279    4368.2653  0.039429238    4368.4266    175.62117 
  213100  0.081225782    4368.2647  0.035085987    4368.4215    175.62093 
  213200  0.077551068    4368.2616  0.038813124    4368.4167    175.62153 
  213300  0.084387313    4368.2639  0.045316709    4368.4357    175.62155 
  213400  0.085430772    4368.2586   0.03760276    4368.4242    175.62147 
  213500  0.078613903    4368.2662  0.047188517    4368.4313     175.6219 
  213600  0.088453259    4368.2641  0.042142741    4368.4388    175.62072 
  213700    0.0828817    4368.2658   0.03338102    4368.4234    175.62071 
  213800  0.073433731    4368.2689  0.043029024     4368.422    175.62116 
  213900  0.065876534     4368.257  0.032260406     4368.388    175.62078 
  214000   0.06291334    4368.2687  0.034090863    4368.3971    175.62011 
  214100  0.074347066    4368.2644  0.042666367    4368.4185    175.62055 
  214200   0.08546701    4368.2657  0.041269853    4368.4351    175.62059 
  214300  0.078947944    4368.2685   0.04094575    4368.4277    175.62038 
  214400  0.073844549    4368.2617  0.047661426      4368.42    175.61889 
  214500  0.075522234    4368.2662  0.048715481    4368.4281     175.6204 
  214600  0.080232612    4368.2657  0.038599492    4368.4245    175.62093 
  214700  0.080237981    4368.2695  0.039354681    4368.4291    175.62124 
  214800  0.074408641     4368.262  0.032818805    4368.4064    175.62076 
  214900  0.074549264    4368.2677  0.042026129    4368.4214    175.62103 
  215000  0.083856122    4368.2682   0.03785035    4368.4318    175.62005 
  215100  0.066581141    4368.2657  0.040895118    4368.4064    175.62114 
  215200  0.076330051    4368.2656  0.042181767    4368.4222    175.61995 
  215300  0.070326496    4368.2703  0.036608934    4368.4123    175.62055 
  215400  0.074126066    4368.2631  0.043510791    4368.4177    175.62013 
  215500  0.073489095    4368.2676  0.040232472     4368.418    175.62092 
  215600  0.065890355    4368.2591  0.045054948    4368.4029    175.62049 
  215700  0.081178529    4368.2697  0.045103876    4368.4365    175.62055 
  215800  0.074757972    4368.2676  0.037614301    4368.4173    175.62015 
  215900  0.074845796    4368.2703  0.032741542    4368.4152    175.62136 
  216000  0.080691808    4368.2641  0.025694539    4368.4107    175.62035 
  216100  0.067004227    4368.2698   0.03852756    4368.4087    175.62117 
  216200  0.072589996    4368.2672  0.030906511    4368.4069    175.62046 
  216300  0.069331547    4368.2674  0.041535627    4368.4128    175.62099 
  216400  0.075846223    4368.2698   0.04042648     4368.424    175.62067 
  216500  0.071664507    4368.2631   0.04129292    4368.4118    175.62119 
  216600  0.077659673    4368.2722  0.037212297    4368.4258    175.62059 
  216700  0.086955288    4368.2622  0.037071421    4368.4296    175.62124 
  216800  0.075840591    4368.2699  0.049523626    4368.4331    175.62057 
  216900  0.080583081     4368.266  0.041743983    4368.4286    175.62039 
  217000  0.076511233    4368.2703  0.037264996    4368.4222    175.62089 
  217100  0.074915504    4368.2649  0.032285775    4368.4095    175.62031 
  217200  0.074487431    4368.2618  0.027953653    4368.4014    175.62143 
  217300  0.078664361    4368.2567   0.03371129    4368.4083     175.6202 
  217400  0.074167493    4368.2633  0.039440658    4368.4139     175.6215 
  217500  0.077430598    4368.2584  0.041275809    4368.4158    175.62136 
  217600  0.081175279    4368.2688  0.039606991    4368.4301    175.62056 
  217700  0.077709203    4368.2619   0.04177835    4368.4201    175.62042 
  217800  0.084671728    4368.2639  0.035043808    4368.4259    175.62157 
  217900  0.080692861    4368.2574  0.044215981    4368.4226    175.62081 
  218000   0.08155736    4368.2661  0.029531958    4368.4179     175.6207 
  218100   0.07470849     4368.262  0.032165551    4368.4061    175.62104 
  218200  0.067576012    4368.2616   0.04209427     4368.405    175.62106 
  218300  0.072354042     4368.259  0.035564457     4368.403    175.62019 
  218400  0.074754474    4368.2584  0.035340267    4368.4058    175.62044 
  218500  0.081305427    4368.2633  0.035563669    4368.4207    175.62028 
  218600  0.078435736    4368.2632  0.042690123    4368.4234    175.62011 
  218700  0.074292539    4368.2657  0.046097755    4368.4232    175.62072 
  218800  0.069254142    4368.2684  0.032482802    4368.4046     175.6208 
  218900  0.066765044    4368.2665  0.038483844     4368.405    175.61978 
  219000  0.070252363    4368.2704  0.032095669    4368.4078    175.62141 
  219100  0.073753799    4368.2655  0.038281146    4368.4144    175.62022 
  219200  0.067773951    4368.2625  0.040577568    4368.4046    175.62076 
  219300   0.06825496    4368.2628  0.042230234    4368.4074    175.62034 
  219400  0.085718519     4368.264  0.040314874    4368.4328    175.62082 
  219500  0.078760874    4368.2678    0.0401332     4368.426    175.62164 
  219600  0.068241688    4368.2681  0.044762437    4368.4151    175.62066 
  219700  0.075376425    4368.2673  0.045034879    4368.4253    175.62011 
  219800   0.08520644    4368.2613  0.034391106    4368.4234    175.62163 
  219900  0.078665304     4368.265  0.040501649    4368.4234     175.6205 
  220000  0.080190974     4368.266  0.040205686    4368.4264    175.62077 
  220100  0.073289256    4368.2717  0.040825504    4368.4224    175.62045 
  220200    0.0781891    4368.2678  0.035814115    4368.4208    175.62034 
  220300  0.084127184    4368.2655  0.040476517    4368.4321    175.62142 
  220400  0.076146244    4368.2583   0.03903498    4368.4115    175.62023 
  220500  0.072579336    4368.2625  0.035171658    4368.4065    175.62027 
  220600  0.067347419    4368.2647   0.03483184    4368.4005    175.62099 
  220700  0.078764575     4368.266  0.032506141    4368.4165    175.62009 
  220800  0.065844912    4368.2608   0.04985097    4368.4093    175.62121 
  220900  0.077574055    4368.2666  0.041174645     4368.424    175.62011 
  221000  0.077319315    4368.2615  0.037952185    4368.4154    175.62133 
  221100  0.080492908    4368.2632  0.037940249    4368.4218    175.62139 
  221200  0.074476791    4368.2689  0.034777301    4368.4153    175.62085 
  221300  0.081363217    4368.2602  0.039119015    4368.4213    175.62103 
  221400  0.087858604    4368.2652  0.044550662    4368.4414    175.62058 
  221500  0.084299054    4368.2645  0.042074034    4368.4329    175.62064 
  221600  0.075186988    4368.2669  0.036124239    4368.4157    175.62069 
  221700  0.073927187    4368.2641  0.040607026    4368.4155    175.62108 
  221800  0.076716369     4368.264  0.028779922    4368.4077    175.62031 
  221900  0.076575917    4368.2656  0.036743593    4368.4171    175.62078 
  222000   0.07322707    4368.2675  0.036574905    4368.4138    175.62001 
  222100  0.086763631     4368.272  0.029269653    4368.4313    175.62114 
  222200  0.076122339    4368.2713  0.040882635    4368.4262    175.61961 
  222300  0.079899999    4368.2709  0.042623468    4368.4332    175.62059 
  222400  0.073834999    4368.2657  0.044356981    4368.4207    175.62049 
  222500  0.061764321    4368.2715  0.037417596    4368.4015    175.62072 
  222600  0.066965778    4368.2727  0.038632176    4368.4117    175.62039 
  222700  0.070300565    4368.2727  0.030214407    4368.4082    175.62034 
  222800  0.065174161    4368.2752  0.037346623    4368.4102    175.61963 
  222900  0.068122466    4368.2732  0.038627344    4368.4139    175.62071 
  223000  0.071535879    4368.2667  0.041843966    4368.4158    175.61962 
  223100  0.068886322    4368.2712  0.039129837    4368.4136    175.62039 
  223200  0.071866556    4368.2711  0.033504958    4368.4123    175.62072 
  223300  0.075621447     4368.266  0.033655984     4368.413    175.62125 
  223400  0.078469471    4368.2684  0.032852762    4368.4188    175.62022 
  223500  0.066153879    4368.2725  0.038669447    4368.4104    175.62027 
  223600  0.074770463    4368.2685  0.035040907    4368.4156    175.62021 
  223700  0.075436308    4368.2684  0.047117079    4368.4286    175.61987 
  223800  0.071499223    4368.2685  0.047612647    4368.4233    175.61964 
  223900  0.072348152    4368.2633  0.037779377    4368.4095    175.62057 
  224000  0.071603326    4368.2691  0.047277554    4368.4237    175.62049 
  224100  0.078282508    4368.2679  0.035480749    4368.4207    175.62021 
  224200   0.08450088    4368.2699   0.03674506    4368.4333    175.62026 
  224300   0.08102259    4368.2726  0.037496791    4368.4316    175.62042 
  224400  0.079234514    4368.2702  0.039758095    4368.4287    175.62057 
  224500  0.085541004     4368.272  0.052565417    4368.4528    175.62094 
  224600  0.082519071    4368.2657   0.04349172    4368.4328    175.61953 
  224700  0.081070411    4368.2645  0.033091287    4368.4191    175.62048 
  224800  0.079870957    4368.2707  0.043978343    4368.4344    175.62064 
  224900  0.082198314     4368.269   0.03669459    4368.4289    175.62011 
  225000  0.081872248     4368.269  0.047052951    4368.4387    175.61956 
  225100  0.071649816    4368.2653  0.049865908    4368.4225    175.62039 
  225200  0.076364823     4368.266   0.04834659    4368.4288    175.62119 
  225300  0.077004859    4368.2723  0.044918966    4368.4326    175.62103 
  225400  0.074041204    4368.2691  0.045900508    4368.4259    175.62061 
  225500  0.075402614    4368.2744  0.034596049     4368.422    175.62093 
  225600  0.070500588    4368.2689  0.048896168    4368.4235     175.6202 
  225700   0.07100919      4368.27  0.045776248    4368.4222     175.6206 
  225800  0.070195451    4368.2665  0.033884763    4368.4056    175.62144 
  225900  0.075706385    4368.2744  0.033567087    4368.4214    175.62132 
  226000  0.078091181    4368.2757  0.034715435    4368.4275    175.62064 
  226100  0.089053528    4368.2714  0.035571361    4368.4404    175.62068 
  226200  0.075181132    4368.2741  0.039154441     4368.426    175.61917 
  226300  0.083937586    4368.2672  0.037457954    4368.4305    175.62107 
  226400  0.079195036    4368.2643    0.0377989    4368.4208    175.61954 
  226500   0.07176741    4368.2709  0.035809774    4368.4143    175.62044 
  226600  0.083773284    4368.2652  0.041360344    4368.4321    175.61997 
  226700  0.076912175    4368.2687  0.043566834    4368.4276    175.62037 
  226800   0.07929188     4368.268  0.033897103    4368.4207    175.62138 
  226900  0.074773265    4368.2682  0.034091925    4368.4144    175.62013 
  227000   0.07244258    4368.2689  0.033726944    4368.4112    175.62051 
  227100  0.075300309    4368.2694  0.037071912    4368.4194    175.62013 
  227200  0.069580487    4368.2773  0.038868561    4368.4205    175.61997 
  227300   0.06102756    4368.2732  0.043401142     4368.408    175.62057 
  227400  0.069800955    4368.2691   0.03529387     4368.409    175.62092 
  227500  0.073675837     4368.269  0.036358143    4368.4157    175.62002 
  227600  0.073976807    4368.2702   0.03537987    4368.4164    175.62027 
  227700  0.075770733    4368.2726  0.030608615    4368.4168    175.62092 
  227800  0.079415115      4368.27  0.037535016    4368.4265    175.61983 
  227900  0.073498664    4368.2676  0.041060087    4368.4188    175.62042 
  228000  0.073450964    4368.2692  0.037401289    4368.4167    175.62031 
  228100  0.064937332    4368.2705  0.035427529    4368.4032    175.62093 
  228200  0.065907052    4368.2744  0.041223516    4368.4144    175.61952 
  228300  0.078838932    4368.2695  0.035507547    4368.4232    175.62108 
  228400   0.07697685    4368.2654  0.032881764    4368.4137    175.62078 
  228500  0.080131904    4368.2729  0.032709184    4368.4257    175.62101 
  228600  0.077872408    4368.2677  0.036302118    4368.4207    175.61995 
  228700  0.070212289    4368.2673  0.034799297    4368.4073    175.62119 
  228800  0.080703831    4368.2665  0.032122598    4368.4196    175.62206 
  228900  0.068068964    4368.2716  0.034353824     4368.408    175.62161 
  229000  0.072266513    4368.2734  0.038192164    4368.4199    175.62009 
  229100  0.072548898    4368.2655  0.034787958     4368.409    175.62117 
  229200  0.076484718     4368.269  0.032636799    4368.4163    175.61992 
  229300  0.078711597    4368.2684  0.027631805     4368.414    175.62146 
  229400  0.070684811    4368.2636  0.045047671    4368.4146    175.62047 
  229500  0.069494934    4368.2661  0.040194322    4368.4105    175.62051 
  229600   0.07801635     4368.273  0.033192266    4368.4232     175.6213 
  229700  0.070959995    4368.2707  0.046837251    4368.4239    175.62079 
  229800  0.078987395    4368.2704  0.035185201     4368.424    175.62156 
  229900  0.083793237    4368.2672  0.044105909    4368.4369    175.62082 
  230000  0.081187059    4368.2686  0.037271351    4368.4275     175.6211 
  230100  0.079533887    4368.2627  0.029815382    4368.4117    175.62057 
  230200  0.075534952    4368.2643  0.033407279    4368.4109    175.62088 
  230300  0.073749231    4368.2629  0.036658117    4368.4101    175.62073 
  230400  0.080285635    4368.2682  0.026775016    4368.4153    175.62089 
  230500  0.073726229    4368.2663  0.033147989      4368.41    175.62048 
  230600  0.068753439    4368.2629  0.027529028    4368.3935    175.62023 
  230700  0.069951109    4368.2642  0.032664414    4368.4017    175.62039 
  230800  0.079498846    4368.2693  0.033651781    4368.4221    175.62064 
  230900  0.067584152    4368.2695  0.045930038    4368.4168    175.62044 
  231000  0.070048559    4368.2666  0.032181497    4368.4038     175.6207 
  231100  0.070239743    4368.2671     0.042579     4368.415    175.62034 
  231200  0.072370766    4368.2754  0.046561004    4368.4304    175.61972 
  231300  0.080977573    4368.2697  0.035673132    4368.4268    175.62058 
  231400   0.08017569    4368.2689  0.041695316    4368.4308     175.6204 
  231500  0.082718071    4368.2758  0.052079078    4368.4518    175.61942 
  231600  0.076763781    4368.2692  0.048618497    4368.4329    175.61971 
  231700  0.079161332    4368.2698  0.040601185    4368.4291    175.62013 
  231800  0.078552773    4368.2683  0.041639326    4368.4277     175.6202 
  231900  0.078691422     4368.268  0.038183263    4368.4242     175.6201 
  232000  0.070719033    4368.2696   0.03281266    4368.4085    175.62006 
  232100  0.070662487    4368.2624  0.035581667    4368.4039    175.61952 
  232200  0.064632985    4368.2712  0.034971237    4368.4031    175.61998 
  232300  0.079413508    4368.2666  0.035917494    4368.4215    175.61957 
  232400  0.084888638    4368.2704   0.04621421    4368.4438    175.62059 
  232500  0.078969287    4368.2679  0.044531686    4368.4308    175.62033 
  232600  0.092220815    4368.2672  0.041753158    4368.4471    175.62072 
  232700   0.07700564    4368.2626  0.049414251    4368.4275    175.62081 
  232800  0.083842003    4368.2666  0.038839472    4368.4311    175.62017 
  232900   0.07565183    4368.2669  0.034654521     4368.415    175.62012 
  233000  0.072979723    4368.2634  0.035392967    4368.4082    175.62082 
  233100  0.083522781    4368.2632  0.039637186     4368.428    175.62054 
  233200   0.08547708    4368.2613  0.047421236    4368.4369    175.61969 
  233300  0.079352469    4368.2636  0.037586299    4368.4201    175.61983 
  233400  0.083820068     4368.264   0.02560024    4368.4152    175.62136 
  233500   0.07775253    4368.2639   0.04056829     4368.421    175.62037 
  233600  0.081784574    4368.2652   0.04474541    4368.4325    175.62063 
  233700  0.078919573    4368.2588  0.040382012    4368.4175    175.62132 
  233800  0.084442133    4368.2671  0.036233798    4368.4299    175.62009 
  233900   0.07288379    4368.2657  0.042108907    4368.4171    175.62115 
  234000  0.072546277    4368.2651  0.044389996    4368.4182    175.62121 
  234100   0.07820841    4368.2681  0.030367882    4368.4156    175.62152 
  234200  0.067308985    4368.2636  0.043984709    4368.4085    175.62143 
  234300  0.074119716    4368.2656  0.034034615    4368.4107    175.62129 
  234400  0.082284617    4368.2573  0.035804052    4368.4164    175.62152 
  234500  0.078474337    4368.2671  0.042572682    4368.4273    175.62053 
  234600  0.076790164    4368.2602  0.039792806    4368.4151    175.62102 
  234700  0.078432129    4368.2596  0.032388543    4368.4096    175.62042 
  234800  0.074596666     4368.267  0.036411314    4368.4152    175.62078 
  234900  0.080187097    4368.2687  0.037009409    4368.4259    175.62043 
  235000  0.071082583    4368.2642  0.038083992    4368.4089     175.6207 
  235100  0.077263548    4368.2622  0.035548738    4368.4135    175.62056 
  235200  0.071381709    4368.2638  0.028963275    4368.3997    175.62178 
  235300  0.072304676     4368.267  0.036419311    4368.4118    175.62144 
  235400  0.069528289    4368.2689  0.029880526    4368.4029    175.62012 
  235500  0.077472956    4368.2693  0.041729296    4368.4272    175.62108 
  235600  0.081425551    4368.2653  0.050092791    4368.4374    175.61971 
  235700  0.081464927    4368.2687  0.041242931    4368.4321    175.62097 
  235800  0.073663631    4368.2632  0.050650117    4368.4243    175.62109 
  235900   0.06204189    4368.2668    0.0390672    4368.3989    175.61941 
  236000  0.066785199    4368.2663  0.044688016    4368.4111    175.62091 
  236100  0.070475674    4368.2597  0.033718641    4368.3991     175.6211 
  236200  0.085045737    4368.2614  0.037702869    4368.4265    175.62156 
  236300  0.080833889    4368.2604  0.033881464    4368.4155    175.62134 
  236400  0.082700448    4368.2646  0.034467721     4368.423    175.62152 
  236500  0.076420369    4368.2608  0.038230319    4368.4135    175.62059 
  236600  0.061482224     4368.267  0.040483441    4368.3997    175.62131 
  236700  0.077419584    4368.2579  0.037149705    4368.4111    175.62136 
  236800  0.068204853    4368.2616   0.04248283    4368.4064    175.62094 
  236900  0.075680169    4368.2613  0.031306709    4368.4061    175.62082 
  237000   0.07256934    4368.2658  0.044968558    4368.4196     175.6205 
  237100  0.075664019    4368.2633  0.033479351    4368.4102    175.62088 
  237200   0.07245898    4368.2632  0.035107608    4368.4069    175.62075 
  237300  0.059611827    4368.2676  0.039902444    4368.3968    175.62077 
  237400  0.073846525    4368.2653  0.038564581    4368.4145      175.621 
  237500  0.084616056    4368.2639  0.034085376    4368.4248    175.62083 
  237600  0.068287433    4368.2715  0.041575599    4368.4154    175.61972 
  237700  0.088671726    4368.2686  0.033280608    4368.4348    175.62072 
  237800  0.071572359    4368.2652  0.038338983    4368.4109    175.62053 
  237900   0.06776075    4368.2703  0.042012711    4368.4139    175.61979 
  238000  0.062591555    4368.2671  0.039454641    4368.4004    175.62115 
  238100  0.066973828    4368.2655  0.034364923    4368.4003    175.62136 
  238200  0.065609583    4368.2609  0.035368691    4368.3946    175.62089 
  238300  0.067617752    4368.2669  0.037712673     4368.406    175.62044 
  238400  0.074946708    4368.2648  0.036722432    4368.4139    175.62079 
  238500  0.073006471    4368.2657  0.033357604    4368.4085    175.62105 
  238600  0.076742688    4368.2676  0.041339975     4368.424    175.62032 
  238700  0.075079408    4368.2622  0.041996706    4368.4167    175.62029 
  238800  0.073660138      4368.27  0.041944089    4368.4224    175.62033 
  238900  0.082129717    4368.2627  0.038315404    4368.4241    175.62003 
  239000  0.075913445    4368.2622  0.044231276    4368.4203    175.62083 
  239100  0.085615232    4368.2651   0.03268474    4368.4261    175.62162 
  239200  0.087795252    4368.2656  0.035694803    4368.4329    175.62093 
  239300  0.071358927    4368.2657   0.04817686    4368.4208    175.62041 
  239400  0.070838693    4368.2638  0.043498649    4368.4135    175.61977 
  239500  0.079903012    4368.2675  0.036573567    4368.4238    175.62042 
  239600  0.072303666    4368.2664  0.034681613    4368.4095     175.6209 
  239700  0.079798185    4368.2643    0.0372911    4368.4212    175.62143 
  239800  0.073340986    4368.2696  0.049517053     4368.429    175.62067 
  239900  0.077127878    4368.2673  0.036901487    4368.4198    175.62063 
  240000  0.077333244    4368.2636  0.032136771    4368.4117     175.6208 
  240100  0.077534458    4368.2705  0.029439141    4368.4161    175.62057 
  240200  0.073293633    4368.2594   0.03621911    4368.4054    175.62072 
  240300  0.089784571    4368.2655  0.031295702    4368.4313    175.62038 
  240400  0.085629455    4368.2603  0.037936997    4368.4265    175.62099 
  240500  0.074644876    4368.2672  0.036846589    4368.4159    175.62062 
  240600  0.080846215    4368.2749  0.038045574    4368.4341    175.62126 
  240700  0.069307005    4368.2699  0.045510415    4368.4193    175.61929 
  240800  0.074194619    4368.2662  0.044808378    4368.4222    175.61997 
  240900   0.08535012    4368.2717  0.033006076    4368.4326    175.61981 
  241000  0.085181713    4368.2678   0.03828178    4368.4338    175.62099 
  241100  0.074190232    4368.2721  0.041273376    4368.4246    175.62061 
  241200  0.060079006    4368.2678  0.037272455    4368.3951    175.62179 
  241300  0.063928951    4368.2623  0.038955739    4368.3971    175.62006 
  241400  0.069329387    4368.2655  0.037684333    4368.4071    175.62027 
  241500  0.072340154    4368.2592  0.035348027     4368.403    175.62019 
  241600  0.066124809     4368.267  0.041235004    4368.4073    175.62068 
  241700  0.067280941    4368.2706  0.039158028    4368.4106     175.6207 
  241800  0.070820762     4368.269   0.03773151    4368.4128     175.6198 
  241900  0.068484717    4368.2686  0.042835241    4368.4141     175.6202 
  242000  0.069732331    4368.2687  0.043611624    4368.4168    175.61947 
  242100  0.071732092    4368.2623  0.035734109    4368.4055    175.62074 
  242200   0.07288583    4368.2664  0.042571668    4368.4182    175.62035 
  242300  0.085799863    4368.2697  0.036105636    4368.4345    175.61988 
  242400  0.069887487    4368.2695   0.02847328    4368.4028    175.62036 
  242500  0.074174955    4368.2631  0.029384806    4368.4036    175.62088 
  242600  0.069921231    4368.2658  0.040974945    4368.4116     175.6206 
  242700  0.077240905    4368.2715  0.039885897    4368.4272    175.62041 
  242800  0.079313469    4368.2659   0.04157368    4368.4263    175.62066 
  242900  0.073622776    4368.2666  0.031754736    4368.4087    175.62032 
  243000  0.072494006    4368.2715  0.042248902    4368.4224    175.61974 
  243100  0.068013273    4368.2634   0.04201506    4368.4074    175.62047 
  243200  0.069877397    4368.2702  0.040571686    4368.4155    175.62108 
  243300  0.079430031    4368.2696  0.036912317    4368.4256     175.6201 
  243400  0.077612051    4368.2659  0.036280335    4368.4185    175.62102 
  243500  0.076386632     4368.268  0.048218481    4368.4307    175.62008 
  243600    0.0819366    4368.2695  0.041884164    4368.4341    175.62013 
  243700  0.081254746    4368.2692  0.035294834    4368.4262    175.62035 
  243800  0.070848478    4368.2709  0.048015735    4368.4251     175.6203 
  243900  0.067059977    4368.2652  0.045379909    4368.4111    175.62006 
  244000  0.076427553    4368.2691  0.040379884     4368.424    175.62066 
  244100  0.072649611    4368.2671  0.042661884    4368.4187    175.62106 
  244200  0.074048957     4368.267  0.042231899    4368.4202    175.62101 
  244300  0.073095105    4368.2683  0.036880974    4368.4148    175.62092 
  244400  0.071720454    4368.2695  0.035780813    4368.4128    175.62083 
  244500  0.069354603    4368.2657  0.041432932    4368.4111    175.62056 
  244600   0.08031003     4368.269  0.036817108    4368.4261    175.62046 
  244700  0.067594273    4368.2634  0.041697191    4368.4064    175.62109 
  244800  0.069420375    4368.2672  0.040859793    4368.4121    175.62039 
  244900  0.076620233    4368.2561  0.041428954    4368.4124    175.61974 
  245000  0.073996052     4368.265  0.043190227    4368.4191    175.62076 
  245100  0.080334354    4368.2679    0.0415373    4368.4299    175.62086 
  245200  0.071116406    4368.2712  0.038709911    4368.4165    175.62134 
  245300  0.069479853    4368.2666  0.042304401     4368.413    175.61962 
  245400  0.068179696      4368.27  0.043078129    4368.4153    175.62044 
  245500  0.074328508    4368.2663  0.036062859    4368.4137     175.6205 
  245600   0.07515843     4368.267  0.034574644    4368.4143    175.62008 
  245700  0.070191819    4368.2623   0.03058129    4368.3981    175.62071 
  245800  0.068605551    4368.2688  0.030735664    4368.4023    175.62036 
  245900  0.074169528    4368.2679  0.035373177    4368.4144    175.62136 
  246000  0.065456825    4368.2671  0.028722739    4368.3939    175.62109 
  246100  0.075765779    4368.2651  0.026426109    4368.4051    175.62098 
  246200  0.070005055    4368.2631   0.03003322     4368.398    175.62103 
  246300  0.064296847    4368.2671  0.046629986    4368.4101    175.61975 
  246400  0.058564007    4368.2671  0.033360708    4368.3883    175.62012 
  246500  0.062281437    4368.2638  0.039526053    4368.3967    175.62059 
  246600  0.073797824    4368.2655  0.032724925    4368.4088    175.62085 
  246700   0.07631522    4368.2651   0.04072634    4368.4202    175.62073 
  246800  0.074964658    4368.2667  0.037807848    4368.4169    175.62062 
  246900  0.079492107    4368.2613  0.037101311    4368.4176    175.62116 
  247000  0.079811146    4368.2679  0.035659615    4368.4232    175.62087 
  247100  0.074889301    4368.2681  0.038985795    4368.4193    175.62119 
  247200  0.078442476    4368.2723  0.037420153    4368.4273    175.62077 
  247300  0.077891265    4368.2657  0.033097052    4368.4155    175.62031 
  247400  0.080288307    4368.2696  0.040338977    4368.4303     175.6204 
  247500  0.075961369     4368.269  0.046314852    4368.4291    175.62039 
  247600  0.084886212    4368.2709  0.040577456    4368.4387    175.62023 
  247700  0.082987699    4368.2654  0.031561551    4368.4214    175.62078 
  247800  0.081378192    4368.2708  0.039805375    4368.4326    175.62123 
  247900  0.077070337    4368.2734  0.038662115    4368.4276    175.62094 
  248000  0.085592518    4368.2689   0.03734143    4368.4345     175.6214 
  248100  0.081076892     4368.269  0.040528133    4368.4311    175.62065 
  248200  0.068384003    4368.2705  0.045134873    4368.4182    175.61998 
  248300  0.066456801    4368.2701   0.04168272    4368.4114     175.6206 
  248400  0.062813734    4368.2694  0.039074838    4368.4026    175.62082 
  248500  0.064538814    4368.2598  0.036292083    4368.3929    175.62082 
  248600  0.070459626    4368.2719  0.032146225    4368.4096     175.6212 
  248700  0.076605206    4368.2604  0.029430105    4368.4047    175.62014 
  248800  0.071380497    4368.2587  0.039881611    4368.4056    175.62062 
  248900  0.079696708    4368.2668  0.032408522    4368.4186    175.62038 
  249000  0.078527781    4368.2556  0.038592476    4368.4119    175.62089 
  249100  0.071108555    4368.2647  0.040635119    4368.4119     175.6212 
  249200  0.080060849    4368.2671  0.048904857     4368.436     175.6211 
  249300  0.077561707    4368.2638  0.043812908    4368.4239    175.62051 
  249400  0.071617783    4368.2637  0.038360236    4368.4094    175.61975 
  249500  0.064771076     4368.253  0.046175863    4368.3963    175.62074 
  249600  0.071736702    4368.2653  0.035348757    4368.4082    175.62098 
  249700  0.085385945    4368.2632  0.029097341    4368.4203    175.62074 
  249800  0.071924441    4368.2614  0.048548989    4368.4177    175.62006 
  249900  0.072077432    4368.2643  0.039916931    4368.4123    175.62059 
  250000  0.067768039    4368.2628  0.038136747    4368.4025    175.62109 
  250100  0.083275328    4368.2674   0.03415177    4368.4264    175.62173 
  250200   0.07848624     4368.268  0.036640394    4368.4222    175.62079 
  250300  0.087323076    4368.2728  0.041811908    4368.4455    175.62073 
  250400  0.085613688    4368.2632  0.030307429    4368.4218    175.62064 
  250500  0.074147645    4368.2669   0.04055766    4368.4186    175.62031 
  250600   0.08323604    4368.2655  0.040228046    4368.4305     175.6202 
  250700  0.077380226    4368.2648  0.046834296    4368.4276     175.6204 
  250800  0.075249734    4368.2625  0.051532298    4368.4268    175.61967 
  250900  0.086151383    4368.2677  0.039596131    4368.4364    175.62032 
  251000  0.088830908     4368.259  0.043557072    4368.4357    175.62129 
  251100  0.089513084    4368.2635  0.045031976    4368.4427    175.62111 
  251200  0.072817723    4368.2631  0.049035453    4368.4213     175.6211 
  251300  0.066498644    4368.2658  0.047406406    4368.4128    175.62085 
  251400  0.077029028    4368.2627  0.035947284    4368.4141    175.62037 
  251500  0.067277488    4368.2627  0.041748368    4368.4053     175.6201 
  251600  0.076367953    4368.2664  0.042840703    4368.4237    175.62079 
  251700  0.069581697    4368.2604  0.033674096    4368.3984    175.62048 
  251800  0.073899899    4368.2647  0.037495593    4368.4129    175.62084 
  251900  0.080636257    4368.2674  0.035794254    4368.4241    175.62055 
  252000  0.073907327    4368.2688  0.034110981    4368.4137    175.62163 
  252100  0.075774685    4368.2641  0.030185885    4368.4078     175.6211 
  252200  0.084107916    4368.2683  0.038385645    4368.4327    175.62079 
  252300  0.082472976    4368.2719  0.035967699    4368.4314     175.6197 
  252400  0.081352298    4368.2665  0.045499436     4368.434    175.61999 
  252500   0.07390606    4368.2712   0.04385236    4368.4258    175.62049 
  252600  0.075159472    4368.2668  0.040184895    4368.4196    175.62169 
  252700  0.073949602    4368.2642   0.03674833    4368.4118     175.6215 
  252800  0.074466637    4368.2623  0.044379383    4368.4183    175.61969 
  252900  0.093907856    4368.2704  0.038667199    4368.4498    175.62116 
  253000  0.073497103    4368.2638  0.049844603    4368.4238    175.62116 
  253100  0.080130029    4368.2657   0.03351081    4368.4193    175.62099 
  253200  0.075988027    4368.2716  0.036498228     4368.422    175.62084 
  253300  0.076155606    4368.2661   0.04278318     4368.423    175.62067 
  253400  0.072937312    4368.2663  0.038686587    4368.4143    175.62133 
  253500   0.08086243    4368.2664  0.038675089    4368.4263    175.62147 
  253600  0.071900654    4368.2701  0.048762232    4368.4266    175.62074 
  253700  0.072895875    4368.2668   0.05349812    4368.4295     175.6203 
  253800  0.078404181    4368.2619  0.044956058    4368.4244    175.62114 
  253900  0.065903063    4368.2705  0.039018229    4368.4083    175.62077 
  254000  0.072997954    4368.2705   0.03184804    4368.4118    175.62008 
  254100  0.079603819    4368.2685  0.026389489    4368.4142    175.62074 
  254200  0.070409762    4368.2714  0.035913282    4368.4129    175.62079 
  254300  0.075995362    4368.2667  0.031080876    4368.4116    175.62039 
  254400  0.077606253    4368.2656  0.037784403    4368.4197    175.62035 
  254500  0.071737461    4368.2693  0.032252456    4368.4091    175.61992 
  254600  0.074806294    4368.2708  0.032242521    4368.4152    175.62022 
  254700  0.071527239    4368.2689  0.042129464    4368.4183    175.61966 
  254800  0.072526579    4368.2684  0.041326666    4368.4184    175.61948 
  254900  0.078223049    4368.2677   0.04213369    4368.4271    175.62098 
  255000  0.078230593    4368.2699  0.031326799    4368.4185    175.62087 
  255100  0.069122737    4368.2702  0.035502094    4368.4094    175.62095 
  255200  0.078603299    4368.2595  0.035548401    4368.4129    175.62055 
  255300  0.090130421    4368.2706   0.03215412    4368.4379    175.62087 
  255400  0.084358425    4368.2623  0.039465355    4368.4282    175.62094 
  255500   0.07827663    4368.2645  0.032780423    4368.4146    175.62079 
  255600  0.065073958    4368.2625  0.038841361    4368.3989    175.62097 
  255700  0.070164762    4368.2606   0.03486386    4368.4007    175.62109 
  255800   0.07413404    4368.2647  0.040171053     4368.416    175.62141 
  255900  0.073424136    4368.2624  0.035089604    4368.4075    175.62034 
  256000  0.068809165    4368.2679  0.048144017    4368.4191    175.62141 
  256100  0.072452858     4368.262  0.035120958    4368.4057     175.6214 
  256200  0.065191145    4368.2631  0.045045716    4368.4059     175.6207 
  256300  0.066169294    4368.2681  0.037745129    4368.4051    175.62048 
  256400  0.073272131     4368.265  0.043076594    4368.4179    175.62118 
  256500  0.067644876    4368.2634  0.042042774    4368.4069    175.62026 
  256600  0.082551812     4368.264  0.036978812    4368.4247    175.62099 
  256700  0.076632225    4368.2709  0.033933707    4368.4197    175.62114 
  256800  0.076206881    4368.2647    0.0454859    4368.4245    175.62063 
  256900  0.068703535    4368.2635  0.044366464    4368.4109     175.6208 
  257000  0.077611975    4368.2622  0.036695157    4368.4153    175.62124 
  257100  0.071126848    4368.2725  0.032914998     4368.412    175.62036 
  257200  0.070838614    4368.2658  0.034207203    4368.4062     175.6213 
  257300   0.07668232    4368.2713   0.03482143    4368.4211    175.62178 
  257400  0.077968461    4368.2635  0.036320291    4368.4167    175.62089 
  257500  0.087431222    4368.2646  0.040182784    4368.4359    175.61992 
  257600   0.10590969    4368.2665  0.032617954    4368.4579      175.621 
  257700  0.094093477     4368.267  0.041465104    4368.4495    175.62092 
  257800  0.086320543     4368.259   0.04153684    4368.4299    175.62074 
  257900  0.082291729     4368.272  0.035445639    4368.4308    175.62121 
  258000  0.078061226    4368.2619  0.045091912     4368.424    175.62116 
  258100  0.081752964    4368.2665   0.04802468    4368.4371    175.62213 
  258200  0.083603394      4368.26  0.037846523    4368.4231    175.62084 
  258300  0.075893588    4368.2666  0.040827522    4368.4212    175.61963 
  258400  0.077715095    4368.2611   0.03764184    4368.4152    175.62024 
  258500  0.083066392    4368.2679  0.036719344    4368.4291    175.62135 
  258600  0.072713145    4368.2602  0.039767942     4368.409    175.62059 
  258700  0.076199772    4368.2626  0.041609551    4368.4184    175.62011 
  258800    0.0799053    4368.2636   0.03243315    4368.4158    175.62095 
  258900  0.085874073    4368.2606  0.035962649    4368.4253    175.62129 
  259000   0.07331515    4368.2659   0.03296342    4368.4088    175.62131 
  259100  0.073523213    4368.2634  0.042275847    4368.4159    175.62066 
  259200  0.072206339    4368.2684    0.0366299    4368.4132    175.62071 
  259300    0.0741436    4368.2662  0.041005894    4368.4183    175.62076 
  259400  0.069871524    4368.2616  0.040320696    4368.4066    175.62072 
  259500  0.066003749    4368.2693  0.048239511    4368.4165    175.62087 
  259600  0.079455448    4368.2647  0.037391469    4368.4212    175.62013 
  259700  0.075743896    4368.2588  0.034746965    4368.4071    175.62112 
  259800   0.07126868    4368.2692  0.036465269    4368.4124    175.62056 
  259900  0.078591062    4368.2601  0.045047011    4368.4229    175.62145 
  260000  0.078376341    4368.2669  0.032583423     4368.417    175.62067 
  260100  0.066669876    4368.2716  0.032801085    4368.4043    175.62109 
  260200  0.084009421    4368.2651  0.034104948    4368.4251    175.61981 
  260300  0.075284131    4368.2668  0.033996496    4368.4136    175.62162 
  260400  0.068778957     4368.266  0.041004287    4368.4101    175.62016 
  260500  0.077435054    4368.2632  0.034594408    4368.4138    175.62075 
  260600  0.070188602    4368.2601  0.039044337    4368.4044    175.62149 
  260700  0.075603691    4368.2687  0.025652194    4368.4077    175.62057 
  260800  0.074307209    4368.2623  0.032344767     4368.406    175.62088 
  260900  0.074188617    4368.2677  0.032393899    4368.4113     175.6204 
  261000  0.068469911    4368.2698  0.053641855    4368.4261    175.62071 
  261100  0.075561816    4368.2728  0.038859997     4368.425    175.61991 
  261200  0.073969833    4368.2635  0.044375775    4368.4188    175.62003 
  261300  0.073228725      4368.27  0.041208359     4368.421    175.62068 
  261400  0.075690463    4368.2611  0.045451325      4368.42     175.6199 
  261500  0.069810732    4368.2637  0.035032815    4368.4033    175.62059 
  261600  0.066038984    4368.2617  0.032643002    4368.3934    175.62122 
  261700  0.066439386    4368.2584  0.030517481    4368.3885    175.62104 
  261800  0.078888907    4368.2659  0.026709357    4368.4109    175.61997 
  261900  0.073158287    4368.2622  0.027649898    4368.3995    175.62062 
  262000  0.073498259    4368.2698   0.03576894    4368.4157    175.62112 
  262100  0.070281806     4368.268  0.042099411    4368.4154    175.62026 
  262200  0.079773761    4368.2625  0.034553042    4368.4166    175.62074 
  262300  0.070060065    4368.2701  0.034824976    4368.4099    175.62079 
  262400   0.07368459    4368.2595  0.035651251    4368.4056    175.61996 
  262500   0.07255672     4368.264  0.033991836    4368.4067    175.62036 
  262600  0.064478782    4368.2674  0.038710242    4368.4027    175.62065 
  262700  0.066988403    4368.2655   0.03728273    4368.4032    175.62078 
  262800    0.0722572    4368.2677  0.030254991    4368.4063    175.62121 
  262900  0.078812254    4368.2682  0.031846405    4368.4182    175.62109 
  263000  0.066901285    4368.2731  0.034677737    4368.4081    175.62057 
  263100  0.070933927    4368.2726  0.036948923    4368.4159    175.62043 
  263200  0.074988891    4368.2671  0.032998662    4368.4125    175.62028 
  263300  0.070064945    4368.2604  0.042105295    4368.4075     175.6213 
  263400  0.083313897    4368.2674  0.035123676    4368.4274    175.62053 
  263500  0.070619489    4368.2682  0.031930091    4368.4059    175.62127 
  263600  0.073660165    4368.2651  0.038220796    4368.4137    175.62003 
  263700  0.069563139    4368.2631  0.035733667    4368.4031    175.62014 
  263800  0.076075845    4368.2643  0.036046783    4368.4144     175.6212 
  263900  0.075983943    4368.2604  0.034034475    4368.4084    175.62087 
  264000  0.071650077    4368.2625  0.032757543    4368.4027    175.62053 
  264100  0.079743945    4368.2724  0.035277182    4368.4272     175.6197 
  264200  0.073700343    4368.2682  0.035973249    4368.4146    175.62028 
  264300   0.07242095    4368.2676  0.031027683    4368.4071     175.6212 
  264400   0.07464643    4368.2718  0.040575479    4368.4243    175.62154 
  264500  0.066080814    4368.2541  0.043088753    4368.3962    175.62001 
  264600  0.073702598    4368.2681  0.030432699     4368.409    175.62004 
  264700  0.070639912    4368.2674  0.038330293    4368.4116    175.62053 
  264800  0.081820724    4368.2693  0.033055626     4368.425    175.62077 
  264900   0.07060459    4368.2681  0.038485528    4368.4124    175.61937 
  265000  0.069880565     4368.265  0.035794589    4368.4056    175.62069 
  265100  0.072234311    4368.2655  0.037937349    4368.4117    175.62107 
  265200  0.072596933    4368.2676  0.036832698    4368.4133    175.61971 
  265300  0.079585739    4368.2702  0.029524054    4368.4191    175.61948 
  265400  0.078640198    4368.2685  0.030836481    4368.4172     175.6206 
  265500  0.072205371    4368.2689  0.033187109    4368.4103    175.61993 
  265600  0.076640882    4368.2676  0.030248926    4368.4128    175.62114 
  265700  0.067812922    4368.2646  0.026183762    4368.3924    175.62069 
  265800  0.073991881    4368.2584  0.034654482    4368.4039    175.62068 
  265900  0.077264662    4368.2713   0.03541169    4368.4225    175.62051 
  266000  0.074958153    4368.2719  0.040225447    4368.4245    175.62138 
  266100  0.073631793    4368.2702  0.034552043    4368.4151    175.62048 
  266200  0.081549868    4368.2708  0.039587803    4368.4327    175.62011 
  266300  0.077991205    4368.2629  0.031549531    4368.4114    175.62061 
  266400  0.074180695    4368.2665  0.038718739    4368.4164    175.62021 
  266500  0.066240197    4368.2729   0.03161584    4368.4038    175.62115 
  266600  0.078766174    4368.2705  0.034249546    4368.4228    175.62029 
  266700   0.07526133    4368.2745  0.038008021    4368.4253     175.6205 
  266800  0.068295095    4368.2729  0.032975844    4368.4082    175.62019 
  266900  0.078972723    4368.2702  0.040596585    4368.4292    175.62108 
  267000  0.075163802    4368.2675   0.04610539    4368.4263    175.61977 
  267100  0.068760474    4368.2749  0.047611524    4368.4256    175.62065 
  267200  0.070364797      4368.27  0.044203754    4368.4196    175.61964 
  267300  0.079317288     4368.273  0.036164215     4368.428    175.62051 
  267400  0.078151593    4368.2699  0.032751701    4368.4198    175.62022 
  267500  0.076944112    4368.2618  0.044111922    4368.4213    175.62041 
  267600  0.083741036    4368.2763  0.041074637    4368.4429    175.62005 
  267700  0.075998537    4368.2663  0.040451164    4368.4207    175.62032 
  267800  0.070041466    4368.2699  0.046086007     4368.421    175.62006 
  267900  0.086809263    4368.2663  0.044046466    4368.4405    175.62046 
  268000  0.077700401    4368.2674  0.045780617    4368.4296    175.61963 
  268100  0.089554933    4368.2718  0.039617395    4368.4457    175.62054 
  268200  0.082785762    4368.2698   0.03695138    4368.4308    175.61958 
  268300  0.080999974    4368.2675  0.043241169    4368.4321    175.62113 
  268400  0.080756287    4368.2721  0.038425757    4368.4316    175.62039 
  268500  0.075628058    4368.2664   0.03168618    4368.4114    175.62082 
  268600  0.084736121    4368.2727   0.03768197    4368.4374    175.62008 
  268700  0.077997418     4368.269  0.035148728    4368.4211    175.62077 
  268800   0.07642474    4368.2667  0.034308987    4368.4156    175.62032 
  268900  0.076827557    4368.2685   0.04340418    4368.4271    175.62057 
  269000  0.078544346     4368.261  0.043634718    4368.4223    175.62034 
  269100  0.084581874    4368.2703   0.03991236     4368.437    175.61965 
  269200  0.078131942    4368.2699  0.029326955    4368.4164     175.6211 
  269300  0.070544458    4368.2618  0.034496135     4368.402    175.62105 
  269400  0.062762205      4368.27  0.029597659    4368.3937    175.62103 
  269500  0.075603109      4368.26   0.03289555    4368.4063    175.62121 
  269600  0.070015022    4368.2572  0.041540971    4368.4037    175.62036 
  269700  0.062830069    4368.2661   0.04023174    4368.4005     175.6202 
  269800   0.08725288    4368.2598  0.043394331    4368.4339    175.62095 
  269900  0.076983337    4368.2608  0.039741543     4368.416    175.62047 
  270000  0.072584426    4368.2623  0.033815946    4368.4049    175.62131 
  270100  0.071906968    4368.2665  0.032974591    4368.4072    175.62114 
  270200   0.08133078    4368.2577  0.033106981    4368.4127    175.62046 
  270300  0.081459213    4368.2654  0.030649404    4368.4181    175.62144 
  270400  0.075049444    4368.2636  0.037531622    4368.4136    175.62094 
  270500  0.074146919    4368.2673  0.041241179    4368.4197    175.62133 
  270600  0.079972582    4368.2641   0.03711964    4368.4211    175.62012 
  270700  0.074191706    4368.2593  0.032819761    4368.4033    175.62112 
  270800  0.073581214    4368.2675  0.034709009    4368.4125    175.62125 
  270900  0.078133649     4368.263  0.028460966    4368.4085    175.62117 
  271000   0.07012025    4368.2681  0.038163501    4368.4113    175.62153 
  271100  0.075775144    4368.2533  0.042554789    4368.4094    175.62096 
  271200   0.07690557     4368.264  0.043239067    4368.4225    175.62133 
  271300  0.077104222    4368.2637  0.041378111    4368.4207    175.62138 
  271400  0.086168722    4368.2642  0.037137041    4368.4305    175.62111 
  271500  0.061334987    4368.2651  0.034954114     4368.392    175.62049 
  271600  0.071579538    4368.2641  0.023296157    4368.3947     175.6209 
  271700   0.06785976    4368.2686  0.034395407    4368.4047    175.62059 
  271800  0.084439777    4368.2698   0.03571932    4368.4321    175.61988 
  271900  0.082838499    4368.2668  0.035961446    4368.4269    175.62095 
  272000  0.079060457    4368.2618  0.034707023     4368.415    175.62074 
  272100  0.069951475    4368.2725  0.030496047    4368.4078    175.61999 
  272200   0.07064925    4368.2653  0.026076088    4368.3972    175.62088 
  272300  0.073431319    4368.2675  0.034754022    4368.4123    175.62088 
  272400  0.073745123    4368.2695  0.037689905    4368.4177    175.62012 
  272500  0.081102889    4368.2657  0.030756151     4368.418    175.62095 
  272600  0.073734793    4368.2621  0.040150628    4368.4128    175.62124 
  272700  0.086855194    4368.2634  0.038550792    4368.4322     175.6207 
  272800  0.089797191    4368.2558  0.038658675    4368.4291    175.62098 
  272900  0.083472019    4368.2676  0.042000549    4368.4347    175.62053 
  273000  0.084172605    4368.2623  0.040788498    4368.4292    175.62175 
  273100  0.085669257    4368.2638  0.037529139    4368.4298    175.62061 
  273200   0.07824339    4368.2704  0.039807215    4368.4274    175.61996 
  273300  0.068690438    4368.2673  0.041183206    4368.4114    175.62065 
  273400  0.080065647    4368.2703  0.038339434    4368.4287    175.62088 
  273500  0.079857199    4368.2621  0.035682993    4368.4175    175.62083 
  273600  0.085912003    4368.2686  0.035916536    4368.4333     175.6205 
  273700   0.07690677    4368.2661  0.037059756    4368.4184    175.62054 
  273800  0.077779323    4368.2689  0.038278792    4368.4237    175.62049 
  273900  0.074847357    4368.2567  0.039867538    4368.4087    175.62065 
  274000  0.072758769    4368.2612  0.045701688     4368.416    175.62092 
  274100  0.083624596    4368.2557  0.035772823    4368.4168    175.62069 
  274200  0.073591879    4368.2599  0.040565476    4368.4107    175.62167 
  274300  0.079385858    4368.2687  0.045473389    4368.4331     175.6213 
  274400  0.071360741    4368.2636    0.0426003    4368.4132     175.6201 
  274500  0.073224246     4368.263  0.037936796    4368.4107    175.62052 
  274600  0.074863772     4368.265  0.035728648    4368.4129    175.62125 
  274700  0.076621164    4368.2698  0.033541586    4368.4182    175.62129 
  274800  0.071661205    4368.2644  0.030984738    4368.4028    175.62125 
  274900  0.084937403    4368.2642  0.029962209    4368.4215    175.62052 
  275000  0.077899378    4368.2614  0.033793234     4368.412    175.62037 
  275100   0.07662153    4368.2638  0.036458599    4368.4151     175.6204 
  275200   0.07879748    4368.2669  0.034546257    4368.4196    175.62053 
  275300  0.071263249    4368.2627  0.032819469    4368.4023     175.6207 
  275400  0.073911261    4368.2672  0.029967544     4368.408    175.62086 
  275500  0.066803229     4368.262  0.037611444    4368.3997     175.6216 
  275600  0.069134623    4368.2695  0.037460243    4368.4106    175.62065 
  275700  0.077106968    4368.2639  0.037882012    4368.4174    175.62141 
  275800  0.075178758    4368.2626  0.032124916    4368.4074     175.6211 
  275900   0.07783857    4368.2644  0.032060628    4368.4131    175.62103 
  276000  0.078314194    4368.2618  0.041963965    4368.4211    175.62047 
  276100  0.073889625    4368.2717  0.041494728    4368.4239    175.62034 
  276200  0.087075611    4368.2627  0.041332319    4368.4345    175.62079 
  276300  0.071897152    4368.2564  0.030813788     4368.395    175.62085 
  276400  0.063030338    4368.2637  0.032065105    4368.3903    175.62018 
  276500   0.07374108    4368.2713   0.03046913    4368.4123    175.62117 
  276600  0.070920204     4368.268  0.029670289     4368.404     175.6199 
  276700  0.069287436    4368.2664  0.030173091    4368.4004    175.62069 
  276800  0.069103482    4368.2647  0.045841519    4368.4142    175.62005 
  276900  0.076365308    4368.2645  0.037904685    4368.4168    175.62141 
  277000   0.07519316    4368.2638  0.037624521    4368.4142    175.62055 
  277100   0.07725423    4368.2663  0.025265207    4368.4074     175.6212 
  277200  0.068296289    4368.2648  0.030156515    4368.3973    175.62149 
  277300  0.069775108    4368.2726  0.032176994    4368.4094    175.62062 
  277400  0.069885166    4368.2658  0.034709915    4368.4053    175.62168 
  277500  0.076624387    4368.2707  0.035617507    4368.4211    175.62062 
  277600  0.079274402    4368.2551  0.042347166    4368.4163    175.62127 
  277700  0.077193587    4368.2664  0.045569599    4368.4277    175.62056 
  277800  0.077187225    4368.2682  0.052952569    4368.4369    175.62088 
  277900  0.083443928    4368.2699  0.041934715    4368.4369    175.62082 
  278000  0.088891933    4368.2662   0.04464947    4368.4441    175.62067 
  278100  0.090151262    4368.2647  0.047112582    4368.4469    175.62144 
  278200  0.087524246    4368.2689  0.041345668    4368.4414    175.62078 
  278300  0.076014572    4368.2704  0.043401957    4368.4277    175.62067 
  278400   0.07872672    4368.2636  0.043309271    4368.4249    175.61996 
  278500  0.075167785    4368.2699  0.038036724    4368.4206    175.62031 
  278600  0.074261597    4368.2752  0.039552124    4368.4261    175.62015 
  278700  0.080717886    4368.2669  0.038605982    4368.4265    175.62152 
  278800  0.094226362    4368.2673  0.033712659    4368.4422    175.62048 
  278900  0.080848871    4368.2683  0.039304736    4368.4287     175.6202 
  279000  0.063632622     4368.272  0.043981463    4368.4114    175.62026 
  279100  0.077303176    4368.2711  0.032472134    4368.4194    175.62093 
  279200  0.081018215     4368.272   0.04091166    4368.4343    175.62008 
  279300  0.075423263    4368.2682  0.038503906    4368.4198    175.62066 
  279400   0.07561014    4368.2735  0.042112533    4368.4289    175.61944 
  279500  0.076431631    4368.2701  0.026843486    4368.4115     175.6206 
  279600  0.071092685    4368.2702  0.031502377    4368.4082    175.62045 
  279700  0.068514537     4368.271  0.027372968    4368.4011    175.62055 
  279800  0.072502163    4368.2709  0.036290979    4368.4159       175.62 
  279900   0.07232852    4368.2722  0.041262618    4368.4218    175.62026 
  280000  0.071292691    4368.2713  0.029036491    4368.4072     175.6205 
  280100  0.081364549    4368.2731   0.03164263    4368.4267    175.62006 
  280200  0.072460128    4368.2702  0.037787994    4368.4166    175.62026 
  280300  0.087465311    4368.2623  0.037267194    4368.4306    175.62142 
  280400  0.077164617    4368.2656  0.032983921    4368.4142    175.62112 
  280500  0.081099593    4368.2688  0.031998806    4368.4223    175.62076 
  280600  0.079825518    4368.2706  0.032690672     4368.423    175.62103 
  280700    0.0779471    4368.2713  0.040644823    4368.4288    175.62146 
  280800  0.074412358    4368.2711  0.045747956    4368.4284    175.62003 
  280900  0.078235842    4368.2671  0.042138249    4368.4265    175.62008 
  281000  0.073002076    4368.2688  0.035945126    4368.4142    175.62154 
  281100  0.079151938    4368.2716    0.0461351    4368.4364    175.61979 
  281200  0.079358937    4368.2691  0.036715226    4368.4247    175.62086 
  281300  0.082305292    4368.2669  0.037840106    4368.4281    175.62196 
  281400  0.082796936    4368.2689  0.032244562    4368.4252    175.62114 
  281500  0.072795227    4368.2635   0.03386077    4368.4065    175.62091 
  281600    0.0822714    4368.2715  0.037493357    4368.4323     175.6205 
  281700  0.065988172    4368.2672  0.044460152    4368.4106    175.62056 
  281800  0.069852246    4368.2717  0.038392557    4368.4148    175.61987 
  281900  0.070035398    4368.2623  0.038089622    4368.4054    175.61957 
  282000  0.072595602    4368.2634  0.036767819     4368.409    175.62064 
  282100  0.073129686    4368.2702  0.035352999    4368.4152    175.62133 
  282200  0.069677677     4368.269  0.056437594    4368.4298    175.62214 
  282300   0.07104896    4368.2683  0.043357049    4368.4182     175.6204 
  282400  0.073686845    4368.2676   0.04051887    4368.4185    175.62089 
  282500  0.080171059    4368.2655  0.047605568    4368.4332    175.62035 
  282600  0.088771628     4368.273  0.030760274    4368.4368    175.62053 
  282700  0.069843067    4368.2706  0.041782045    4368.4171    175.62059 
  282800  0.080311052    4368.2676  0.044621757    4368.4326    175.61992 
  282900   0.07944424    4368.2736  0.047928338    4368.4406    175.62078 
  283000  0.075951507    4368.2669  0.046641175    4368.4274    175.61986 
  283100  0.073313727    4368.2676   0.03578647    4368.4133     175.6206 
  283200  0.070705667    4368.2752  0.032303983    4368.4135    175.62113 
  283300  0.080987994    4368.2659  0.031870879    4368.4192    175.62135 
  283400   0.06427603    4368.2707  0.055420168    4368.4224    175.62103 
  283500  0.092834382    4368.2713  0.041189231    4368.4516    175.62126 
  283600  0.083109515    4368.2721  0.047572739    4368.4443    175.61963 
  283700  0.079915437    4368.2671  0.050852998    4368.4377    175.62087 
  283800  0.078840094    4368.2662  0.044753967    4368.4292     175.6195 
  283900  0.077904764     4368.272  0.029374632    4368.4182    175.62022 
  284000  0.080526156    4368.2704  0.030486543    4368.4216     175.6206 
  284100  0.077687373    4368.2698  0.029609971    4368.4158    175.62117 
  284200  0.076173348    4368.2694  0.035689876    4368.4193    175.61991 
  284300  0.076161668    4368.2705  0.027259756    4368.4119    175.62097 
  284400  0.068255112    4368.2666   0.04593781    4368.4148    175.62015 
  284500  0.079673851    4368.2739  0.032904107    4368.4262    175.62096 
  284600  0.067589705    4368.2639  0.037359622    4368.4026    175.62021 
  284700  0.071659521    4368.2708  0.027511284    4368.4057    175.62014 
  284800  0.072641144    4368.2728  0.041431597    4368.4231    175.62025 
  284900  0.072523684    4368.2658  0.033307471    4368.4078    175.62008 
  285000  0.068952037    4368.2613  0.037732966    4368.4024    175.62126 
  285100  0.069505838    4368.2625  0.032123353    4368.3988    175.62018 
  285200   0.07085484    4368.2684  0.029839327    4368.4044    175.62119 
  285300  0.085752323    4368.2711  0.029785981    4368.4294    175.62011 
  285400  0.079821145    4368.2725  0.039572107    4368.4317    175.61971 
  285500  0.077155543    4368.2625  0.032358462    4368.4105    175.62071 
  285600  0.067425519    4368.2683  0.037081173    4368.4064    175.62026 
  285700  0.075143946    4368.2714  0.041000827     4368.425    175.61923 
  285800  0.081467743    4368.2689  0.040990726     4368.432    175.62084 
  285900   0.08197024    4368.2667  0.032797283    4368.4223    175.62093 
  286000  0.076230531     4368.267  0.033154473    4368.4144    175.62005 
  286100  0.067084264    4368.2705  0.025925131     4368.397    175.62135 
  286200  0.071594037    4368.2666  0.026863761    4368.4008    175.62099 
  286300  0.064385703    4368.2617  0.032357882    4368.3906     175.6205 
  286400  0.066440307    4368.2692  0.034111646    4368.4029    175.62158 
  286500  0.067651583    4368.2715  0.039811999    4368.4127    175.61922 
  286600  0.078186044    4368.2651  0.050139575    4368.4325    175.61976 
  286700   0.07792044    4368.2655  0.041349086    4368.4237    175.62066 
  286800  0.087037268    4368.2695   0.03847174    4368.4385    175.61995 
  286900   0.08294889     4368.267  0.034356422    4368.4256    175.62056 
  287000  0.076203351    4368.2745  0.043297841     4368.432    175.62009 
  287100  0.069759326    4368.2721  0.048515955    4368.4251    175.62027 
  287200  0.074757114    4368.2618  0.047110824     4368.421    175.61959 
  287300  0.076560137    4368.2664  0.048780713    4368.4299    175.62043 
  287400   0.07712881    4368.2621  0.033654987    4368.4113    175.62133 
  287500  0.071866357    4368.2664  0.036580724    4368.4107    175.62001 
  287600  0.073634606    4368.2655  0.041793677    4368.4176    175.62095 
  287700  0.079807049    4368.2688  0.034847953    4368.4233    175.62019 
  287800  0.073578502    4368.2636  0.037190729    4368.4111    175.62171 
  287900  0.092340399    4368.2715  0.036264757    4368.4462    175.62075 
  288000  0.084960598    4368.2655  0.039915239    4368.4327    175.62042 
  288100  0.077648547    4368.2663  0.033823302    4368.4165    175.62127 
  288200  0.078863805    4368.2686  0.047201618     4368.434    175.61936 
  288300   0.06972253    4368.2647   0.03669726    4368.4059    175.62133 
  288400  0.082212993    4368.2684  0.041258293    4368.4329    175.61976 
  288500  0.079413982    4368.2698  0.043534066    4368.4324    175.62058 
  288600  0.080260174    4368.2655   0.03748431    4368.4232    175.62016 
  288700   0.07874004    4368.2663  0.043220623    4368.4275    175.61959 
  288800  0.084287039    4368.2593  0.034338543      4368.42    175.62142 
  288900  0.090314264     4368.264  0.050525529    4368.4499    175.62053 
  289000  0.087261664    4368.2699  0.040222368     4368.441    175.62067 
  289100  0.077383813    4368.2635  0.044798092    4368.4243    175.62033 
  289200  0.073612774    4368.2703   0.04957303    4368.4303    175.61945 
  289300  0.079318575    4368.2623  0.043834505     4368.425    175.62132 
  289400  0.075216604    4368.2704  0.047985159    4368.4311    175.62141 
  289500  0.074631255     4368.269  0.040079908     4368.421    175.62116 
  289600  0.071633205     4368.268  0.030516102    4368.4059    175.62127 
  289700  0.068745968    4368.2668  0.047439636    4368.4172    175.61892 
  289800  0.077695764    4368.2669  0.043287267    4368.4267    175.62124 
  289900  0.086304054    4368.2664  0.035370554    4368.4311     175.6208 
  290000  0.073100309    4368.2716  0.036495905    4368.4177     175.6213 
  290100   0.08011096    4368.2608  0.045672448    4368.4266    175.62047 
  290200  0.072346568    4368.2579  0.042985998    4368.4093    175.62033 
  290300  0.077752105     4368.263  0.050038688    4368.4296    175.62179 
  290400  0.080616145    4368.2591  0.051126935     4368.431    175.62121 
  290500  0.079029985    4368.2596  0.049123617    4368.4272     175.6193 
  290600   0.06989256    4368.2612  0.046228199    4368.4122    175.61997 
  290700  0.078111097    4368.2609   0.03519003    4368.4132    175.62142 
  290800  0.083512264    4368.2703  0.044131653    4368.4396    175.62137 
  290900  0.073734303    4368.2667  0.044381684    4368.4216    175.61987 
  291000   0.08136442    4368.2605  0.054358107    4368.4368    175.61998 
  291100  0.081702616    4368.2606  0.054545518    4368.4376     175.6208 
  291200  0.077739174    4368.2618  0.040328831    4368.4187    175.62205 
  291300  0.072706641    4368.2653  0.037180923    4368.4115    175.62052 
  291400  0.067387728    4368.2677  0.044373553    4368.4131    175.62094 
  291500  0.070687803    4368.2692  0.040441979    4368.4156    175.62049 
  291600  0.074545609    4368.2648  0.037418993    4368.4139    175.62144 
  291700   0.08381898    4368.2682  0.040258882    4368.4341    175.62071 
  291800  0.083885572    4368.2631  0.042968208    4368.4318    175.62057 
  291900  0.078868271    4368.2683  0.036727128    4368.4232    175.62104 
  292000  0.080423059    4368.2633   0.04167791    4368.4255    175.61992 
  292100  0.085425292    4368.2625  0.033467434     4368.424     175.6215 
  292200  0.069209994    4368.2618  0.041859636    4368.4074    175.62071 
  292300  0.070994549    4368.2726  0.035969889     4368.415    175.62083 
  292400  0.084578508    4368.2682  0.027871667    4368.4229    175.62089 
  292500  0.083076761    4368.2593  0.028993844    4368.4128    175.62099 
  292600  0.075101067    4368.2672  0.029333451    4368.4091    175.62066 
  292700   0.07894461    4368.2662   0.03205887    4368.4166    175.62086 
  292800  0.080247843    4368.2687  0.036457937    4368.4254    175.62001 
  292900  0.077798212    4368.2678  0.037978105    4368.4223    175.61921 
  293000   0.06378368    4368.2682  0.040319216    4368.4041    175.61953 
  293100  0.070480743    4368.2683  0.039727504    4368.4137    175.61991 
  293200  0.076143238    4368.2655  0.041424701     4368.421    175.62049 
  293300   0.08904579    4368.2637  0.037159333    4368.4343    175.62142 
  293400  0.081549707    4368.2642   0.03318146    4368.4196    175.61995 
  293500  0.068477876    4368.2647  0.046419167    4368.4138    175.62052 
  293600   0.07466337    4368.2634  0.045239443    4368.4206     175.6199 
  293700  0.079603351    4368.2673  0.043258386    4368.4298    175.62045 
  293800  0.081327163    4368.2647  0.036072539    4368.4227     175.6206 
  293900  0.075902211     4368.267  0.038147878    4368.4189     175.6193 
  294000  0.075060239    4368.2707  0.041104147    4368.4243    175.62113 
  294100  0.071177139    4368.2658  0.033227589    4368.4057    175.62014 
  294200  0.068368189    4368.2661  0.037982839    4368.4066    175.61952 
  294300  0.068056476    4368.2695  0.040271761    4368.4117    175.62102 
  294400  0.074867846    4368.2635  0.032055201    4368.4077    175.62167 
  294500  0.074685761    4368.2686  0.026083851    4368.4066    175.62113 
  294600  0.071713825    4368.2665  0.032789123    4368.4068    175.62019 
  294700   0.07170258    4368.2667   0.03243424    4368.4066    175.62157 
  294800  0.079657004    4368.2652  0.038733158    4368.4233    175.62052 
  294900  0.075628922    4368.2619  0.036261736    4368.4115    175.61981 
  295000  0.074088394    4368.2707  0.036193026     4368.418    175.61996 
  295100  0.082082504    4368.2645  0.032865684    4368.4204    175.62012 
  295200  0.072516736    4368.2683  0.040685572    4368.4177    175.61978 
  295300  0.072319445    4368.2707  0.037877496     4368.417    175.61989 
  295400  0.084066712    4368.2669  0.033208197    4368.4261    175.62085 
  295500  0.080439719    4368.2672  0.045682862    4368.4334    175.62019 
  295600  0.073527538    4368.2732  0.044566832     4368.428    175.62063 
  295700  0.077614615    4368.2726  0.035512376    4368.4245    175.62038 
  295800  0.079753998    4368.2647  0.042190266    4368.4264    175.62023 
  295900  0.084546731    4368.2674   0.03541365    4368.4295    175.62106 
  296000  0.084655778     4368.265  0.035032635    4368.4269    175.62052 
  296100  0.084129974    4368.2659  0.039359709    4368.4314    175.62003 
  296200  0.078108807    4368.2645  0.041316487    4368.4229    175.62025 
  296300  0.075446139    4368.2742  0.036852212    4368.4241    175.61967 
  296400  0.072958124    4368.2675  0.038555587    4368.4154    175.62073 
  296500  0.071859451    4368.2668  0.032579814    4368.4071    175.62063 
  296600  0.077331772    4368.2653  0.038793655      4368.42    175.62102 
  296700  0.064612363    4368.2672  0.033952323     4368.398    175.62071 
  296800  0.066453481     4368.267  0.034726341    4368.4013    175.62017 
  296900    0.0626514    4368.2708  0.041362766    4368.4061    175.61995 
  297000  0.078523487    4368.2673  0.034843516    4368.4198    175.62076 
  297100  0.083473107    4368.2668   0.03997686    4368.4319    175.62028 
  297200  0.081845418     4368.273  0.044164541    4368.4398    175.62191 
  297300  0.077817406    4368.2647  0.034756529    4368.4161    175.61933 
  297400  0.080289612     4368.263  0.039198766    4368.4225    175.62016 
  297500  0.068437386    4368.2648  0.040042268    4368.4074    175.62047 
  297600  0.079796608    4368.2678  0.030330776    4368.4178     175.6206 
  297700  0.074831716    4368.2644  0.041797628    4368.4183    175.62069 
  297800  0.080694557    4368.2656  0.045854912    4368.4324    175.62138 
  297900  0.078832987    4368.2713    0.0406443    4368.4301    175.61987 
  298000  0.079932724    4368.2677  0.039383255    4368.4269    175.62015 
  298100  0.078553353    4368.2655  0.041989188    4368.4253    175.62075 
  298200  0.080971658    4368.2745  0.049650532    4368.4455    175.62121 
  298300  0.091451392    4368.2628   0.04459044    4368.4445    175.62018 
  298400  0.097386431    4368.2688  0.033733401    4368.4485    175.62103 
  298500  0.077518563    4368.2736  0.045629443    4368.4354    175.62021 
  298600  0.083707535    4368.2719  0.039666659     4368.437    175.62112 
  298700  0.072621372     4368.267  0.031276735    4368.4071    175.62039 
  298800  0.070790276    4368.2718  0.026645011    4368.4046    175.62077 
  298900  0.061114419    4368.2674  0.038731228    4368.3977    175.62091 
  299000  0.070293638    4368.2639  0.047060374    4368.4164    175.61999 
  299100  0.080431231    4368.2646  0.044231945    4368.4293    175.61959 
  299200  0.075170885    4368.2684  0.053353931    4368.4344    175.61967 
  299300  0.080820636    4368.2654  0.044552455    4368.4311     175.6203 
  299400  0.062970904    4368.2692  0.047476835     4368.411    175.62021 
  299500  0.073551565    4368.2746  0.038881649    4368.4237     175.6198 
  299600  0.073470233    4368.2643  0.052590081     4368.427    175.61929 
  299700  0.077438589    4368.2712  0.041896068    4368.4292     175.6204 
  299800  0.076897092    4368.2654  0.028117391    4368.4087    175.62117 
  299900  0.067889129    4368.2724   0.03865637    4368.4128    175.61989 
  300000  0.066841836    4368.2728  0.029668008    4368.4026    175.62088 
  300100  0.082926161    4368.2702  0.041124723    4368.4356    175.62104 
  300200  0.091332301    4368.2696  0.045039278    4368.4515    175.61959 
  300300  0.083649392    4368.2705  0.045170458     4368.441    175.62062 
  300400  0.067376081    4368.2735  0.057724185    4368.4322    175.61977 
  300500  0.068128145    4368.2701  0.036838525    4368.4091    175.62042 
  300600  0.069242195    4368.2717  0.041887473    4368.4174    175.61956 
  300700  0.065904241    4368.2738  0.038706228    4368.4113    175.61966 
  300800  0.069450616    4368.2656  0.039551082    4368.4093    175.61999 
  300900  0.069664447    4368.2662  0.027893328    4368.3985    175.62052 
  301000   0.06416227    4368.2728  0.034835448    4368.4038    175.62072 
  301100  0.074050352    4368.2721  0.033677716    4368.4168    175.62056 
  301200  0.069320579    4368.2689   0.03661933    4368.4095    175.62053 
  301300  0.077929676    4368.2709  0.037341421     4368.425    175.62007 
  301400  0.077906942    4368.2729  0.033371079    4368.4231    175.61957 
  301500  0.068643741    4368.2669  0.039216154     4368.409    175.61955 
  301600  0.079555055    4368.2632  0.033919038    4368.4163    175.62038 
  301700   0.07012596    4368.2694  0.031874716    4368.4064     175.6204 
  301800  0.069007716    4368.2665  0.033985835    4368.4039    175.62052 
  301900  0.082604829    4368.2686  0.039721799    4368.4321    175.61944 
  302000  0.076096165    4368.2717  0.047833173    4368.4336    175.61987 
  302100  0.076588741     4368.268  0.038394182    4368.4212    175.62034 
  302200  0.070550374    4368.2714  0.044789069    4368.4219    175.62114 
  302300  0.078748239    4368.2695  0.040872899    4368.4284    175.62079 
  302400  0.071999838    4368.2645  0.037197368    4368.4096    175.62066 
  302500  0.068039533    4368.2689  0.035858902    4368.4067    175.62056 
  302600  0.069155518    4368.2709  0.037380238     4368.412    175.61969 
  302700  0.067892761    4368.2623  0.034332686    4368.3984    175.62056 
  302800  0.079991265    4368.2684  0.031123381    4368.4195    175.62031 
  302900  0.076308778    4368.2668  0.031280648    4368.4125    175.62034 
  303000  0.073115389    4368.2748  0.034654887    4368.4191     175.6201 
  303100  0.070788251    4368.2673  0.030631725     4368.404    175.62024 
  303200  0.069777602    4368.2711  0.034599434    4368.4103    175.61974 
  303300  0.069562616     4368.261  0.036168963    4368.4015    175.62029 
  303400  0.078542751    4368.2698  0.031683828    4368.4192    175.62075 
  303500  0.078206632    4368.2738  0.047889213    4368.4389    175.62047 
  303600  0.081017537     4368.269  0.038803752    4368.4292    175.62086 
  303700  0.080145801     4368.268  0.038817032    4368.4269    175.62098 
  303800   0.07267229    4368.2668  0.048682905    4368.4244    175.62095 
  303900  0.084170695    4368.2699   0.03750786    4368.4336    175.61933 
  304000  0.070829302    4368.2728  0.039514587    4368.4185    175.61993 
  304100  0.064017405    4368.2698   0.03541252    4368.4012    175.61965 
  304200  0.069747783    4368.2681  0.035418663     4368.408     175.6201 
  304300  0.079207905    4368.2634  0.034696563    4368.4169    175.62037 
  304400   0.07488369    4368.2742  0.040863509    4368.4273    175.61999 
  304500   0.07957101    4368.2732  0.035478383     4368.428    175.62056 
  304600  0.082617268    4368.2682   0.03269082    4368.4247    175.62066 
  304700  0.070569776    4368.2661  0.039650033    4368.4116    175.62049 
  304800  0.065274485    4368.2684  0.036824389    4368.4031     175.6202 
  304900  0.072366002     4368.273  0.032719309    4368.4142    175.62124 
  305000  0.074816322    4368.2666  0.036888683    4368.4156    175.62114 
  305100  0.071733641    4368.2658  0.047406594    4368.4207    175.62018 
  305200  0.069873483    4368.2696   0.04802866    4368.4224    175.61959 
  305300   0.07710928    4368.2646    0.0499445    4368.4301    175.62036 
  305400  0.081360347    4368.2738  0.036136304    4368.4319    175.62058 
  305500  0.066148753     4368.272  0.036821113     4368.408    175.62022 
  305600  0.073417607    4368.2699  0.033726802    4368.4136    175.62024 
  305700  0.063653899    4368.2693  0.035140251    4368.3998    175.61931 
  305800  0.072749352    4368.2688  0.028761614    4368.4066    175.62095 
  305900  0.066377098    4368.2756  0.037164915    4368.4122    175.61993 
  306000  0.082083838    4368.2654  0.030999485    4368.4195    175.62029 
  306100  0.075844725    4368.2769  0.034129556    4368.4248     175.6214 
  306200  0.068474858    4368.2562  0.049694796    4368.4085    175.61915 
  306300  0.084172585    4368.2715   0.03995551    4368.4376     175.6204 
  306400   0.08082213    4368.2629   0.04193371     4368.426     175.6197 
  306500  0.071767086    4368.2649  0.041405256    4368.4139    175.62039 
  306600  0.065949758    4368.2698  0.028803479    4368.3975    175.62017 
  306700  0.063997447    4368.2643  0.034172664    4368.3944    175.62022 
  306800  0.067077283    4368.2741   0.04042785    4368.4151    175.62117 
  306900  0.067938696    4368.2675  0.024821251    4368.3941    175.62121 
  307000    0.0656796    4368.2711  0.030973193    4368.4005    175.62066 
  307100  0.069058173    4368.2688  0.030315685    4368.4026    175.61915 
  307200  0.063883874    4368.2708  0.039941403    4368.4065    175.62091 
  307300  0.073718475     4368.273  0.042007839    4368.4255    175.61993 
  307400  0.062152393    4368.2706  0.038491842    4368.4023    175.62023 
  307500  0.080900785    4368.2714  0.031351548     4368.424    175.62083 
  307600  0.086081948    4368.2661  0.032116342    4368.4273    175.62081 
  307700  0.077763625    4368.2692  0.040611032    4368.4264    175.62107 
  307800   0.07588757    4368.2643  0.041772052    4368.4198    175.62097 
  307900  0.076941271    4368.2641  0.041282977    4368.4207    175.62012 
  308000  0.071253221    4368.2671  0.041019408    4368.4149     175.6199 
  308100  0.065416626     4368.273  0.048069094    4368.4191    175.62015 
  308200  0.080605628    4368.2627  0.039560727    4368.4231    175.62048 
  308300  0.074070817    4368.2687  0.036515565    4368.4162    175.62021 
  308400  0.079388581    4368.2665   0.03361326    4368.4191    175.62044 
  308500  0.068351718    4368.2726  0.034117813    4368.4092    175.61985 
  308600  0.064021837    4368.2694  0.038990385    4368.4044    175.62065 
  308700  0.069517335    4368.2649  0.048200303    4368.4173    175.61924 
  308800  0.068079926    4368.2709  0.032424374    4368.4054    175.62038 
  308900  0.070280589    4368.2702  0.040791084    4368.4163    175.62063 
  309000  0.078130491    4368.2678  0.026963206    4368.4118    175.62045 
  309100  0.069841923    4368.2735  0.050523263    4368.4287    175.61908 
  309200  0.066774129    4368.2682  0.033259667    4368.4015    175.62131 
  309300   0.07882368    4368.2652  0.032866652    4368.4162    175.62018 
  309400  0.080873108    4368.2717  0.027290552    4368.4202    175.62074 
  309500  0.072692474    4368.2647   0.03552862    4368.4092    175.61951 
  309600  0.075404141    4368.2698  0.042135874    4368.4249    175.61985 
  309700  0.076318178    4368.2679  0.034995596    4368.4173    175.61959 
  309800  0.084030191      4368.27  0.040231146    4368.4362    175.62085 
  309900  0.073506559    4368.2685  0.036342168    4368.4151    175.62113 
  310000  0.077944776    4368.2724  0.042585637    4368.4318    175.62055 
  310100  0.081797968     4368.269  0.039819451    4368.4314    175.62058 
  310200  0.084120865    4368.2666  0.046917419    4368.4396    175.62047 
  310300  0.079096171    4368.2689  0.045701513    4368.4331    175.61996 
  310400  0.070897649    4368.2706  0.047765126    4368.4246    175.62069 
  310500   0.06831499    4368.2726   0.04720712    4368.4222    175.62043 
  310600  0.066886287    4368.2701   0.04322752    4368.4136    175.62057 
  310700  0.065179784    4368.2707   0.03720346    4368.4056    175.62085 
  310800  0.070298994    4368.2693  0.045917219    4368.4206    175.61976 
  310900   0.07960538    4368.2714  0.038507687    4368.4292    175.62121 
  311000  0.072701489    4368.2662  0.038123332    4368.4133    175.62035 
  311100  0.078789641    4368.2603  0.043409358    4368.4218    175.62003 
  311200  0.075024032    4368.2671  0.044049767    4368.4236    175.62097 
  311300  0.076926421    4368.2687  0.039555216    4368.4236    175.62088 
  311400  0.071386896    4368.2729  0.039098574     4368.419    175.62105 
  311500  0.068927525     4368.263  0.055426482    4368.4218    175.61959 
  311600  0.073703458    4368.2629    0.0420158    4368.4154    175.62122 
  311700  0.075726959    4368.2744  0.034520841    4368.4224    175.62003 
  311800  0.079707119    4368.2693  0.038258024    4368.4271    175.62013 
  311900  0.070201403    4368.2702  0.038854399    4368.4143    175.62083 
  312000  0.080995906      4368.27  0.039080885    4368.4305    175.62138 
  312100  0.073227003    4368.2698    0.0431197    4368.4227    175.62053 
  312200  0.070827491    4368.2703  0.044031755    4368.4205    175.62041 
  312300  0.083169552    4368.2632  0.040160032    4368.4281    175.62085 
  312400  0.079347303    4368.2685  0.044919885    4368.4324    175.62078 
  312500  0.074589865    4368.2622  0.043616386    4368.4176    175.62049 
  312600  0.074809312    4368.2644  0.028395174    4368.4049    175.62106 
  312700  0.081060988     4368.269  0.037457632    4368.4279    175.62043 
  312800  0.080344654    4368.2623  0.037005114    4368.4197    175.62146 
  312900  0.069415889     4368.264  0.035314077    4368.4034    175.62085 
  313000   0.06706484     4368.265  0.036548759    4368.4021     175.6208 
  313100  0.067697484    4368.2707  0.040317951    4368.4125    175.61982 
  313200  0.069280552     4368.268  0.032129748     4368.404    175.62173 
  313300  0.069646195    4368.2658  0.038128628    4368.4083    175.62025 
  313400  0.081950865    4368.2729  0.032189444    4368.4279    175.62106 
  313500  0.067417581    4368.2711  0.031884942     4368.404    175.62099 
  313600  0.068150138    4368.2695  0.034196219    4368.4058    175.62059 
  313700  0.065768185     4368.272  0.034254488    4368.4049    175.62086 
  313800  0.075130615    4368.2695  0.050600124    4368.4327    175.61985 
  313900  0.084889566    4368.2711  0.038555723    4368.4369    175.62061 
  314000  0.086907269    4368.2612  0.051873686    4368.4434    175.62082 
  314100  0.090565662     4368.272  0.036750656    4368.4445    175.62078 
  314200  0.074097579    4368.2701  0.042124489    4368.4232    175.62132 
  314300  0.079618581    4368.2641  0.031058122    4368.4145    175.62075 
  314400  0.069433861    4368.2689  0.033003599     4368.406    175.62021 
  314500  0.074848007    4368.2702  0.040270227    4368.4227    175.62043 
  314600  0.077229875    4368.2697  0.040723636    4368.4262    175.61946 
  314700  0.071038832    4368.2748  0.034688426     4368.416    175.61982 
  314800  0.084323186     4368.272  0.031823739    4368.4302    175.62102 
  314900   0.08701915    4368.2636  0.041023224     4368.435    175.61999 
  315000  0.083498358    4368.2699  0.049015731    4368.4441    175.62028 
  315100  0.091788895    4368.2656  0.040311951    4368.4435     175.6205 
  315200  0.086698602    4368.2681   0.04525199    4368.4433    175.61957 
  315300  0.074824987    4368.2675   0.03745947    4368.4171     175.6205 
  315400  0.077467368     4368.269  0.038280141    4368.4234    175.62106 
  315500  0.082816371    4368.2635  0.034749702    4368.4223    175.62089 
  315600  0.069897233    4368.2694  0.035394064    4368.4096    175.62145 
  315700  0.070696539    4368.2754  0.037110197    4368.4185    175.62003 
  315800  0.072764685    4368.2683  0.035479666    4368.4129     175.6204 
  315900  0.072949008    4368.2646   0.03571055    4368.4096    175.62021 
  316000  0.077006573    4368.2666   0.03995225     4368.422    175.62086 
  316100  0.088550845    4368.2682  0.039206615    4368.4401    175.62051 
  316200  0.084096388    4368.2681  0.036379554    4368.4305    175.62089 
  316300  0.082785991    4368.2733  0.035978498    4368.4333    175.62041 
  316400  0.085851024    4368.2738  0.036014333    4368.4385    175.62075 
  316500  0.094680684    4368.2608  0.037960443    4368.4406    175.62068 
  316600  0.083313338    4368.2655  0.038583595    4368.4289    175.62017 
  316700  0.067926851    4368.2715  0.039335401    4368.4127    175.62009 
  316800  0.075995302    4368.2637  0.037983698    4368.4156    175.62088 
  316900  0.079578654    4368.2681  0.030250273    4368.4176    175.62082 
  317000  0.073470913    4368.2698  0.031925939    4368.4119    175.62114 
  317100  0.088557517    4368.2703  0.031407917    4368.4345    175.62104 
  317200  0.073261639     4368.269  0.037681552    4368.4165    175.62199 
  317300  0.076152552    4368.2671  0.033112597    4368.4144    175.62173 
  317400  0.071160442    4368.2563  0.033101774    4368.3961    175.62075 
  317500  0.070166046    4368.2622  0.039154283    4368.4065     175.6211 
  317600   0.08017093    4368.2637  0.033481956    4368.4174    175.61997 
  317700  0.070460794    4368.2641  0.043462618    4368.4131    175.62079 
  317800  0.068031711    4368.2665  0.038895988    4368.4074    175.62083 
  317900   0.07277104    4368.2668   0.03544971    4368.4113    175.62086 
  318000  0.068841109    4368.2676  0.032813578    4368.4036    175.62049 
  318100  0.068869912    4368.2664  0.030812011    4368.4004    175.62096 
  318200  0.072097234    4368.2649  0.038096084    4368.4111    175.61999 
  318300  0.076302173    4368.2711  0.039419832    4368.4249    175.62048 
  318400  0.077791366    4368.2626  0.042435948    4368.4216    175.62013 
  318500   0.08639363    4368.2676  0.040913983     4368.438    175.62007 
  318600  0.090524568    4368.2705  0.041064431    4368.4472    175.62064 
  318700  0.070693103    4368.2644  0.039980184    4368.4103       175.62 
  318800  0.077231864    4368.2659  0.038387208      4368.42    175.62054 
  318900  0.091257258    4368.2684  0.037243269    4368.4424    175.62137 
  319000  0.084138249    4368.2746  0.037255622     4368.438    175.62131 
  319100  0.078073794    4368.2697  0.032163597    4368.4189    175.62072 
  319200  0.079748261    4368.2697  0.036540847    4368.4257    175.61969 
  319300  0.077221003    4368.2755  0.042517711    4368.4337    175.61991 
  319400  0.077573598    4368.2651  0.043314775    4368.4247    175.62061 
  319500  0.067076313    4368.2646  0.040359401    4368.4055    175.62116 
  319600  0.076131786    4368.2693  0.032441268    4368.4159    175.62024 
  319700  0.075383211    4368.2636  0.035428338    4368.4121    175.62094 
  319800  0.075551407    4368.2695  0.029958961    4368.4127     175.6204 
  319900  0.076813967     4368.269  0.026223956    4368.4104    175.62048 
  320000  0.070381987    4368.2706  0.034482079    4368.4106    175.62033 
  320100  0.065282887    4368.2615  0.043706578     4368.403    175.61928 
  320200  0.067730525    4368.2704   0.03910887     4368.411    175.62014 
  320300  0.077404114    4368.2708  0.037633954    4368.4244    175.62019 
  320400  0.079764861    4368.2665  0.034693965    4368.4208     175.6213 
  320500   0.07418613     4368.265  0.029187727    4368.4053    175.62051 
  320600  0.079712632    4368.2624  0.026347974    4368.4082    175.62123 
  320700  0.068734235    4368.2673  0.031181859    4368.4015    175.62025 
  320800  0.066885264    4368.2733  0.027770884    4368.4013    175.62073 
  320900  0.067312383     4368.269  0.033771163    4368.4036    175.62076 
  321000  0.075249004    4368.2658  0.039733476    4368.4184    175.62002 
  321100  0.070722997    4368.2602  0.041607628    4368.4078    175.62076 
  321200  0.086899252    4368.2703  0.037718934    4368.4383    175.62077 
  321300     0.081728    4368.2683  0.036614708    4368.4275    175.62014 
  321400  0.085236813    4368.2692  0.030186319    4368.4271    175.62087 
  321500  0.078313891    4368.2586  0.038592081    4368.4145    175.61993 
  321600  0.075940832    4368.2659  0.035202797    4368.4149    175.62052 
  321700  0.080110111    4368.2662  0.031403917    4368.4177    175.62099 
  321800  0.075606076    4368.2623  0.033064514    4368.4087    175.62028 
  321900  0.066034701    4368.2689  0.040280382    4368.4082    175.61959 
  322000  0.068613993    4368.2619   0.03222586    4368.3969    175.62025 
  322100  0.068400926    4368.2609  0.036383726    4368.3998    175.62075 
  322200  0.073058378    4368.2714  0.036558285    4368.4174    175.62065 
  322300  0.072167648     4368.267  0.043609789    4368.4188    175.62153 
  322400  0.072446474    4368.2665  0.040926662     4368.416    175.62011 
  322500  0.072397405    4368.2622  0.045235353     4368.416    175.62028 
  322600  0.070269508    4368.2706  0.043110243    4368.4191    175.62061 
  322700  0.069869599     4368.268  0.035276383     4368.408    175.62098 
  322800   0.07318958    4368.2699  0.038644505    4368.4183    175.62058 
  322900   0.06332748    4368.2732   0.03574648    4368.4039    175.62146 
  323000  0.069413646    4368.2667  0.044404823    4368.4152    175.62015 
  323100  0.082283715    4368.2677  0.041098906    4368.4321    175.62116 
  323200  0.078315495    4368.2687  0.042193607    4368.4283    175.62026 
  323300  0.083561139    4368.2635  0.042214581    4368.4309    175.62072 
  323400  0.080570559    4368.2617   0.03600821    4368.4185    175.62148 
  323500  0.093635233     4368.262  0.034301929    4368.4366    175.62098 
  323600  0.070011928    4368.2655  0.044771623    4368.4152    175.62092 
  323700  0.065533508     4368.264  0.045140626    4368.4073    175.62038 
  323800  0.070333166    4368.2654  0.039365673    4368.4102    175.62095 
  323900  0.074527575    4368.2665  0.034331746    4368.4126    175.62052 
  324000  0.077004093    4368.2649  0.033805932    4368.4141    175.62001 
  324100  0.074098393    4368.2705  0.030349595    4368.4119    175.62145 
  324200  0.069642293    4368.2605  0.037380259    4368.4023    175.62133 
  324300  0.075811565    4368.2663  0.035210499    4368.4152    175.61994 
  324400  0.076960791    4368.2664  0.035239091     4368.417    175.62165 
  324500  0.080147102    4368.2654  0.036807023    4368.4223    175.62105 
  324600  0.089046674    4368.2631   0.04032682    4368.4369    175.62015 
  324700   0.08374961    4368.2629  0.040691362    4368.4291    175.62106 
  324800  0.082370024    4368.2686  0.041385277    4368.4334    175.61965 
  324900  0.081889431    4368.2663  0.032677361    4368.4217    175.62045 
  325000  0.077558401    4368.2617  0.043335403    4368.4212    175.62111 
  325100  0.080080079    4368.2691   0.04373878    4368.4328    175.62007 
  325200  0.078169378    4368.2689  0.035985671     4368.422    175.62052 
  325300  0.075825045    4368.2664  0.044179341    4368.4243    175.62058 
  325400  0.069054198    4368.2658   0.03575348     4368.405    175.62058 
  325500  0.066534977    4368.2612   0.03877318    4368.3997    175.62019 
  325600  0.072973962    4368.2694  0.040765131    4368.4195    175.61897 
  325700  0.070394278    4368.2638   0.03519898    4368.4045    175.62035 
  325800  0.078544457    4368.2682  0.033132254    4368.4191    175.62178 
  325900  0.074588967    4368.2738   0.03499787    4368.4206    175.62121 
  326000  0.079378225    4368.2666  0.041769574    4368.4274     175.6215 
  326100  0.078337894    4368.2699  0.041272347    4368.4285    175.62125 
  326200  0.079110233    4368.2655  0.038891227     4368.423    175.62044 
  326300  0.078258339    4368.2717  0.040082178    4368.4291    175.62031 
  326400  0.074947945    4368.2704   0.03765757    4368.4204    175.61971 
  326500  0.070868272    4368.2679   0.03368029    4368.4078    175.62098 
  326600  0.068576324    4368.2679  0.051243547    4368.4219    175.62001 
  326700  0.075318303    4368.2664  0.036164869    4368.4155    175.62059 
  326800  0.076365155    4368.2637   0.04046137    4368.4186    175.62068 
  326900  0.079366835    4368.2676  0.036910024    4368.4234    175.61998 
  327000  0.076354365    4368.2695  0.037499531    4368.4215     175.6207 
  327100   0.07519759     4368.271  0.033792567    4368.4175    175.62036 
  327200  0.060019899    4368.2656  0.039150807    4368.3947     175.6212 
  327300  0.065411483    4368.2638  0.030311234    4368.3922    175.62107 
  327400  0.072983191    4368.2573  0.042628449    4368.4093    175.62062 
  327500  0.074665742    4368.2615  0.035968918    4368.4093    175.62134 
  327600  0.068828015    4368.2652  0.032577211    4368.4009    175.62009 
  327700  0.065308022    4368.2618  0.034196434    4368.3938    175.62062 
  327800  0.063528655    4368.2651  0.036377092    4368.3967    175.62057 
  327900  0.073757481    4368.2626  0.029514592    4368.4027     175.6208 
  328000  0.078290243    4368.2617  0.038071408    4368.4171    175.62019 
  328100  0.067412195    4368.2641  0.041235482    4368.4064    175.62066 
  328200   0.07223751    4368.2637  0.041729163    4368.4137    175.62048 
  328300  0.073736563    4368.2656  0.041685087    4368.4178    175.62081 
  328400  0.076583308    4368.2606  0.032478174    4368.4078    175.62016 
  328500  0.078186503    4368.2673  0.033133618    4368.4176    175.62122 
  328600  0.076113455    4368.2657  0.039681849    4368.4194     175.6215 
  328700  0.077040547    4368.2698  0.029925756    4368.4152    175.62046 
  328800  0.077827158    4368.2706  0.029988164    4368.4172     175.6205 
  328900  0.084121084    4368.2703  0.038312203    4368.4347    175.62139 
  329000  0.075287486    4368.2675   0.04237207    4368.4227    175.62099 
  329100  0.069308674    4368.2616  0.034502257       4368.4    175.62149 
  329200  0.065404291    4368.2668  0.032455117    4368.3973    175.62149 
  329300  0.081281306    4368.2614  0.029791068     4368.413    175.62037 
  329400  0.077297018    4368.2663  0.030300308    4368.4125    175.61995 
  329500  0.065263635     4368.262  0.036799691    4368.3966    175.61942 
  329600  0.066761672    4368.2669  0.029154032    4368.3961    175.62105 
  329700  0.062366277    4368.2699  0.026277131    4368.3897    175.62113 
  329800  0.065524554    4368.2719   0.03683643    4368.4069    175.61985 
  329900  0.073474225    4368.2622  0.036614117     4368.409    175.62165 
  330000  0.070194728    4368.2685  0.033010347    4368.4067    175.62089 
  330100   0.07880021     4368.265  0.038806868    4368.4219     175.6206 
  330200  0.067966202    4368.2689  0.042273559    4368.4131    175.62095 
  330300  0.083158575    4368.2618  0.042050866    4368.4285    175.62048 
  330400  0.075268161    4368.2715  0.052776792    4368.4371    175.61934 
  330500  0.084706802    4368.2687  0.037278273    4368.4329    175.62068 
  330600  0.086214347     4368.274  0.036920351    4368.4402    175.62087 
  330700   0.08722597    4368.2665  0.041269474    4368.4385    175.62114 
  330800  0.075469405    4368.2604  0.050202008    4368.4238    175.61987 
  330900  0.081111689    4368.2705   0.03626617    4368.4283    175.62111 
  331000  0.073752057    4368.2704  0.045727177    4368.4266    175.61964 
  331100  0.070242585    4368.2689  0.032813423     4368.407    175.62166 
  331200  0.075454438    4368.2691  0.044928454    4368.4272    175.62017 
  331300  0.074525654    4368.2669  0.043070903    4368.4217    175.61993 
  331400  0.075108719    4368.2718  0.040710879    4368.4251    175.62083 
  331500  0.074982261     4368.264  0.045846706    4368.4222    175.62035 
  331600  0.074479227    4368.2677  0.030625681    4368.4099    175.62079 
  331700  0.081570634    4368.2671  0.037758298    4368.4271    175.62018 
  331800   0.08031022      4368.27    0.0364232    4368.4268    175.62049 
  331900  0.079340201    4368.2651  0.029581972    4368.4136    175.61979 
  332000  0.080769961     4368.268  0.032032787     4368.421     175.6216 
  332100  0.080068887    4368.2674  0.034688609    4368.4221    175.62053 
  332200  0.067449038    4368.2637  0.031072613    4368.3958    175.62027 
  332300  0.072699853    4368.2686  0.032146389    4368.4097    175.62111 
  332400  0.074783816    4368.2737  0.031192746     4368.417    175.62058 
  332500  0.066844475    4368.2688  0.038999592     4368.408    175.61972 
  332600  0.066571388    4368.2687  0.031249968    4368.3998    175.62057 
  332700  0.070521172     4368.265   0.03153797    4368.4023    175.62084 
  332800  0.071714544    4368.2688  0.030711861     4368.407    175.62059 
  332900  0.078834053    4368.2686  0.030450862    4368.4172     175.6208 
  333000  0.073133445    4368.2683  0.037994048    4368.4159    175.62127 
  333100  0.074615915    4368.2723  0.037197781    4368.4214    175.61973 
  333200   0.07336854    4368.2671  0.039335154    4368.4164    175.62012 
  333300  0.074388088    4368.2635   0.03717694    4368.4121    175.62073 
  333400  0.069812384    4368.2726  0.042181031    4368.4194    175.62014 
  333500  0.070481938    4368.2685  0.036162554    4368.4103    175.62116 
  333600  0.068966055    4368.2665  0.036587765    4368.4065    175.62036 
  333700  0.077784051    4368.2678  0.038326607    4368.4227    175.62078 
  333800  0.071473129    4368.2696  0.032626567    4368.4094    175.62096 
  333900   0.07281831    4368.2688  0.037225587    4368.4152    175.62185 
  334000  0.060103036    4368.2642  0.041092453    4368.3954    175.62083 
  334100  0.072897193    4368.2682  0.038759807    4368.4163    175.62074 
  334200  0.079342928    4368.2667  0.032500823    4368.4181    175.62044 
  334300  0.079934258    4368.2623  0.038367729    4368.4205     175.6204 
  334400  0.083503862    4368.2717  0.032294637    4368.4292    175.62095 
  334500  0.076948746    4368.2651  0.034392065    4368.4149     175.6208 
  334600  0.074376421     4368.269  0.031819729    4368.4123    175.62093 
  334700  0.076522422    4368.2698  0.028169363    4368.4127    175.62097 
  334800  0.069783631    4368.2669  0.036302924    4368.4078    175.62138 
  334900    0.0655536    4368.2737  0.035511408    4368.4075    175.62159 
  335000  0.069795021    4368.2719  0.042233676    4368.4187    175.61999 
  335100  0.071005187    4368.2685   0.04297259    4368.4179    175.62048 
  335200  0.074180562    4368.2685  0.034326734     4368.414    175.62113 
  335300  0.075825239    4368.2729  0.043325037    4368.4299    175.62062 
  335400  0.059180381    4368.2661   0.04450987    4368.3993    175.62012 
  335500  0.073052361    4368.2689  0.030060567    4368.4085    175.62089 
  335600  0.068615256    4368.2659  0.043368694    4368.4121    175.62044 
  335700  0.066977865     4368.267  0.044847588    4368.4123    175.62027 
  335800  0.083046444     4368.266  0.029681088    4368.4202    175.62096 
  335900  0.077421758    4368.2661  0.045889323     4368.428     175.6204 
  336000  0.080872263     4368.261  0.037132657    4368.4193    175.62092 
  336100  0.064786698    4368.2641  0.042655338    4368.4038    175.61992 
  336200  0.074012106    4368.2667  0.044449804    4368.4221    175.62087 
  336300  0.081789316    4368.2682  0.045268057    4368.4361    175.62105 
  336400  0.076908038    4368.2646  0.041879978    4368.4217    175.61989 
  336500  0.073827028    4368.2697  0.036862304    4368.4172    175.62086 
  336600  0.084402693    4368.2662  0.045723383    4368.4385    175.62058 
  336700  0.078475012    4368.2622    0.0401307      4368.42    175.62022 
  336800  0.079577996    4368.2701  0.040718101    4368.4301     175.6209 
  336900  0.072477922    4368.2696  0.028433266    4368.4067    175.62004 
  337000  0.072290304    4368.2697  0.033054134    4368.4111     175.6199 
  337100  0.065764242    4368.2667  0.029146336    4368.3945    175.62029 
  337200  0.069993884    4368.2691  0.023001729     4368.397    175.62037 
  337300  0.076966696    4368.2697  0.027856319    4368.4129    175.62102 
  337400  0.090897382    4368.2706  0.038346614    4368.4452    175.62017 
  337500  0.087376595    4368.2669  0.051361531    4368.4492    175.62047 
  337600  0.082365817     4368.268  0.042515748     4368.434    175.62033 
  337700   0.08325864    4368.2726  0.039373933    4368.4368    175.62009 
  337800  0.087781998    4368.2714  0.040306501    4368.4433    175.62038 
  337900  0.076661933    4368.2699  0.038940334    4368.4237    175.62035 
  338000  0.073561763    4368.2719  0.034307893    4368.4165    175.62041 
  338100  0.063812029     4368.269  0.041989639    4368.4066     175.6205 
  338200  0.083971625    4368.2656  0.031438608    4368.4229    175.62153 
  338300  0.081314205    4368.2671  0.030863223    4368.4198    175.62071 
  338400     0.078163    4368.2654  0.032186553    4368.4148      175.621 
  338500  0.077068521     4368.271  0.035964849    4368.4225    175.62117 
  338600  0.071436322     4368.274  0.031501569    4368.4126    175.62104 
  338700  0.072407128    4368.2699   0.04045006    4368.4189    175.62117 
  338800  0.074153557    4368.2707  0.042681179    4368.4245    175.62004 
  338900   0.07820377    4368.2686  0.033583828    4368.4194    175.62093 
  339000  0.071577738    4368.2607  0.043646139    4368.4117    175.62041 
  339100  0.077780352    4368.2681  0.038750956    4368.4235    175.62017 
  339200  0.077640766    4368.2687  0.035804234    4368.4208     175.6211 
  339300  0.069741565    4368.2667  0.037703685     4368.409    175.62086 
  339400  0.072716538    4368.2676  0.035487165    4368.4121    175.62047 
  339500  0.073194173    4368.2621  0.041950211    4368.4138    175.61977 
  339600  0.076795354    4368.2621  0.035656784    4368.4128    175.62142 
  339700  0.087150301    4368.2679  0.025576962    4368.4241    175.62127 
  339800   0.07409275    4368.2629  0.045754215    4368.4197    175.62106 
  339900  0.068984664    4368.2607  0.040323358    4368.4044    175.62097 
  340000  0.066015281    4368.2642  0.036560854    4368.3997    175.62109 
  340100  0.070757214     4368.261  0.034400984    4368.4015    175.62097 
  340200  0.070824188    4368.2693  0.050300675    4368.4258    175.62128 
  340300  0.076096922    4368.2586  0.033586393    4368.4063    175.62032 
  340400  0.077021284    4368.2597  0.036162937    4368.4113     175.6207 
  340500  0.082327778    4368.2643  0.034197304    4368.4219    175.62199 
  340600  0.069339607    4368.2549  0.035438754    4368.3943    175.62019 
  340700  0.069130416    4368.2666  0.031804124     4368.402    175.62012 
  340800  0.077751248    4368.2665  0.033431299    4368.4165    175.62098 
  340900  0.067165656     4368.263  0.037959949    4368.4016    175.62061 
  341000  0.070091488    4368.2643  0.045738963    4368.4151    175.62113 
  341100  0.075466203    4368.2583  0.033250926    4368.4047    175.62193 
  341200  0.078641407     4368.264  0.028457726    4368.4104     175.6209 
  341300  0.078786815    4368.2663  0.042692935    4368.4271    175.62083 
  341400  0.080235027     4368.267  0.034773281    4368.4221    175.62111 
  341500  0.080848248    4368.2641  0.041975791    4368.4273    175.62089 
  341600  0.081187961    4368.2649  0.045523691    4368.4321    175.62085 
  341700  0.085643352    4368.2672  0.041566236    4368.4372    175.62133 
  341800   0.08285264     4368.264  0.036882813     4368.425    175.62105 
  341900  0.075773294    4368.2674  0.036997186     4368.418    175.62167 
  342000  0.073653868    4368.2678  0.034691953    4368.4129    175.62016 
  342100  0.069983017     4368.266  0.031289851    4368.4022    175.62133 
  342200  0.073561496    4368.2707  0.037198909    4368.4181    175.62098 
  342300  0.068212861    4368.2626  0.036635165    4368.4015    175.62039 
  342400  0.063614825    4368.2602  0.034803783    4368.3904    175.62091 
  342500  0.071580182    4368.2697  0.036252444    4368.4132     175.6206 
  342600  0.077570016    4368.2664  0.031336442     4368.414    175.62071 
  342700   0.07569521    4368.2709  0.041342974    4368.4257    175.62026 
  342800  0.060180838    4368.2661  0.038147226    4368.3944    175.62044 
  342900  0.073378628    4368.2616  0.027799812    4368.3994    175.62075 
  343000  0.069222954    4368.2655  0.039257569    4368.4085    175.62116 
  343100  0.075528812    4368.2652  0.041783599    4368.4202    175.61996 
  343200   0.07947354    4368.2669  0.031132308    4368.4172    175.62099 
  343300  0.070073484    4368.2635  0.036652762    4368.4052    175.62119 
  343400  0.069157732     4368.262  0.047703074    4368.4133    175.62063 
  343500  0.072433008    4368.2667  0.037712149     4368.413    175.62097 
  343600  0.081900043    4368.2704  0.033259043    4368.4264    175.62089 
  343700  0.072149844    4368.2639  0.035768324    4368.4078    175.62118 
  343800  0.076431278    4368.2702  0.043218816     4368.428    175.61966 
  343900  0.071675813    4368.2653  0.043548985    4368.4162    175.61944 
  344000  0.079930757    4368.2665    0.0369664    4368.4233    175.62022 
  344100  0.081832221     4368.267   0.04004282    4368.4297    175.62108 
  344200  0.069371454    4368.2645  0.043487642    4368.4119    175.62077 
  344300  0.079392447    4368.2707  0.032136142    4368.4218    175.62095 
  344400  0.065035293    4368.2736  0.032326429    4368.4034    175.62134 
  344500  0.075940371    4368.2702  0.037698715    4368.4218    175.62062 
  344600  0.073809762    4368.2635  0.044233279    4368.4184    175.62045 
  344700  0.085540484    4368.2627  0.036122656     4368.427    175.62133 
  344800  0.076327378    4368.2694  0.047148342     4368.431    175.62042 
  344900  0.075820332    4368.2722  0.039837872    4368.4257     175.6213 
  345000  0.077178163    4368.2678  0.044608683    4368.4281    175.62094 
  345100  0.072215209    4368.2674   0.03847576    4368.4141    175.62012 
  345200  0.072607409     4368.274  0.029530998    4368.4124    175.62112 
  345300  0.072041262    4368.2589  0.029817457    4368.3967    175.62088 
  345400  0.074914017    4368.2704  0.027235922    4368.4099    175.62105 
  345500   0.06562979    4368.2662  0.029980648    4368.3946    175.62065 
  345600  0.068315542    4368.2653  0.031969843    4368.3996    175.62026 
  345700  0.072864134     4368.261  0.030323368    4368.4005    175.62102 
  345800  0.070455291    4368.2633  0.037992977    4368.4069     175.6209 
  345900  0.078554593    4368.2693  0.047444769    4368.4345    175.62061 
  346000   0.08126581    4368.2669  0.030186991    4368.4189    175.62108 
  346100  0.068422862    4368.2706  0.032996763    4368.4062    175.62135 
  346200  0.070080761     4368.266  0.043056957    4368.4141    175.62017 
  346300  0.060577801    4368.2632  0.034586397    4368.3886    175.62101 
  346400   0.07267355    4368.2683  0.034019134    4368.4113    175.62114 
  346500  0.069142292    4368.2637  0.037469366    4368.4048    175.62129 
  346600  0.074190643    4368.2606  0.035903698    4368.4077    175.62046 
  346700  0.073629982    4368.2612  0.038872496    4368.4105    175.62217 
  346800  0.070809669    4368.2677  0.042323168    4368.4161    175.62015 
  346900  0.077497509     4368.265  0.033808943     4368.415    175.62228 
  347000  0.069361918    4368.2602   0.04087429    4368.4051    175.62165 
  347100  0.078907083    4368.2614  0.039184268    4368.4189     175.6204 
  347200  0.086136113    4368.2703  0.036359611    4368.4358    175.62039 
  347300   0.07137036     4368.267  0.043569011    4368.4175    175.62127 
  347400  0.074358088    4368.2721  0.035808985    4368.4193     175.6213 
  347500  0.076470141    4368.2676  0.035142512    4368.4174    175.62061 
  347600  0.086345996    4368.2734  0.042329748    4368.4451    175.62128 
  347700   0.09100837    4368.2659  0.029102808    4368.4314    175.62169 
  347800  0.076119999    4368.2673  0.043889072    4368.4253    175.61952 
  347900  0.076370433    4368.2622  0.034073504    4368.4108    175.62097 
  348000  0.077729962     4368.266  0.039006708    4368.4215    175.62063 
  348100  0.073889973    4368.2633   0.03921976    4368.4133    175.62026 
  348200  0.071551778    4368.2696  0.038978854    4368.4158    175.62013 
  348300  0.088455096    4368.2719  0.037456679    4368.4419    175.62053 
  348400  0.075974051    4368.2651  0.033259351    4368.4122     175.6209 
  348500  0.078790264    4368.2581  0.029756438     4368.406    175.62066 
  348600  0.077751877    4368.2631  0.034499826    4368.4142    175.62001 
  348700  0.065455594    4368.2675  0.040407231     4368.406    175.62082 
  348800  0.067556438    4368.2661  0.039713414    4368.4071    175.62077 
  348900  0.076811493    4368.2649  0.039963825      4368.42    175.62081 
  349000  0.076269294    4368.2611  0.028374921    4368.4038    175.62065 
  349100   0.07516549    4368.2647  0.043128333    4368.4205    175.62003 
  349200   0.07385288    4368.2664  0.034997346    4368.4121    175.62047 
  349300  0.079607276    4368.2706  0.036194886    4368.4261    175.62103 
  349400  0.073600902    4368.2718  0.032101337    4368.4142    175.62065 
  349500  0.072583362    4368.2718  0.028332159     4368.409    175.62027 
  349600  0.061535125    4368.2688  0.041003413    4368.4021     175.6201 
  349700  0.074584737    4368.2706  0.034614577     4368.417    175.61946 
  349800  0.072913367    4368.2672  0.034107632    4368.4106    175.62067 
  349900  0.071398112    4368.2633   0.03361579    4368.4039    175.62096 
  350000   0.07204263    4368.2703  0.034182682    4368.4125     175.6209 
  350100   0.07511034    4368.2643  0.029729728    4368.4066    175.62126 
  350200  0.068632011    4368.2685  0.034636204     4368.406    175.61986 
  350300  0.068130904     4368.264  0.036505945    4368.4026    175.62035 
  350400  0.077638321    4368.2623  0.036262189     4368.415    175.62125 
  350500  0.082078059    4368.2702  0.033273159    4368.4265    175.62076 
  350600  0.068985266    4368.2681  0.041823963    4368.4134    175.62033 
  350700   0.07467715    4368.2721  0.037796074    4368.4218    175.62026 
  350800  0.092122404    4368.2678  0.034490745    4368.4403    175.62172 
  350900  0.089136009    4368.2665  0.040711845    4368.4408    175.62071 
  351000  0.079014538    4368.2699  0.047504113    4368.4359    175.62008 
  351100  0.086854409     4368.261  0.040381531    4368.4315    175.62009 
  351200   0.08225278    4368.2575  0.032578588    4368.4134    175.62115 
  351300  0.073987082    4368.2633  0.035011869    4368.4092    175.62122 
  351400  0.078540984    4368.2672  0.032696781    4368.4176    175.62116 
  351500  0.085526252    4368.2663  0.034932475    4368.4295    175.62047 
  351600  0.065503975    4368.2688  0.040312829    4368.4073    175.62091 
  351700  0.081654836    4368.2697    0.0288601     4368.421    175.62095 
  351800  0.079040473    4368.2707  0.031187437    4368.4203    175.62076 
  351900  0.075087341     4368.268   0.03938297    4368.4199    175.61976 
  352000  0.084675081    4368.2673  0.038150112    4368.4324    175.62023 
  352100  0.079335827    4368.2708  0.032801222    4368.4225    175.62188 
  352200  0.080360475    4368.2647  0.039885462    4368.4251    175.62123 
  352300  0.073059506    4368.2605  0.038910877    4368.4089     175.6204 
  352400  0.076120022    4368.2686  0.034284786     4368.417    175.62013 
  352500  0.081050537    4368.2649  0.033945372    4368.4203    175.62089 
  352600  0.075887925    4368.2569  0.032815709    4368.4035    175.62171 
  352700  0.068260272    4368.2655  0.039691861    4368.4075    175.62126 
  352800  0.069154112     4368.265  0.031577357    4368.4002    175.62186 
  352900  0.071186371    4368.2636  0.039961516    4368.4103    175.62087 
  353000  0.069655042    4368.2669  0.034068016    4368.4054    175.62116 
  353100  0.079818355    4368.2681  0.043135964    4368.4309    175.62146 
  353200  0.075078849    4368.2604  0.038924043    4368.4118    175.62081 
  353300  0.081886522    4368.2589   0.03447167    4368.4161    175.62021 
  353400  0.069906116    4368.2669   0.03979182    4368.4115    175.62118 
  353500  0.073760451    4368.2652  0.050231929     4368.426    175.62058 
  353600  0.084170988    4368.2653  0.042848642    4368.4343    175.62039 
  353700  0.090864648    4368.2709  0.035073736    4368.4422    175.62127 
  353800   0.07473929    4368.2632  0.034819494    4368.4101    175.62094 
  353900  0.073241422    4368.2667  0.034123364    4368.4106    175.62085 
  354000  0.070433288    4368.2694  0.034796349    4368.4098    175.62113 
  354100  0.069558588    4368.2673  0.033664448    4368.4052    175.61921 
  354200  0.072955312    4368.2638  0.032680493    4368.4059    175.62079 
  354300  0.065845954    4368.2675  0.030109118    4368.3963    175.62099 
  354400  0.070600688    4368.2633  0.032461747    4368.4016     175.6208 
  354500  0.070860857    4368.2695  0.034294913      4368.41    175.62054 
  354600  0.080342197    4368.2696    0.0385769    4368.4286    175.62059 
  354700  0.073100828    4368.2634  0.037990607     4368.411    175.62081 
  354800  0.074098847    4368.2713  0.036341267    4368.4188    175.62073 
  354900  0.073741371    4368.2693  0.046741492    4368.4266    175.61944 
  355000  0.078353309    4368.2694  0.036183643     4368.423    175.62049 
  355100  0.081095256    4368.2674  0.032080973     4368.421    175.62046 
  355200  0.074368411    4368.2692  0.038471064    4368.4191    175.62056 
  355300  0.081412773    4368.2661  0.035702245    4368.4238    175.61995 
  355400  0.069324743    4368.2676   0.03381209    4368.4053    175.62158 
  355500  0.070533472     4368.264  0.033895792    4368.4036    175.62023 
  355600  0.079547183     4368.265  0.033225353    4368.4174    175.62077 
  355700  0.074183549    4368.2671  0.038654711    4368.4169    175.62064 
  355800   0.06887618    4368.2653  0.041251351    4368.4098    175.62038 
  355900  0.076212589     4368.265   0.04641867    4368.4256     175.6212 
  356000  0.065745515    4368.2714  0.041257631    4368.4112    175.62044 
  356100  0.075862313    4368.2684  0.035607303    4368.4177    175.62016 
  356200  0.077270011    4368.2629  0.045319545    4368.4241    175.61952 
  356300    0.0764337    4368.2622  0.045491958    4368.4223    175.62153 
  356400  0.077071621     4368.265  0.035429327    4368.4159    175.62077 
  356500  0.073474637    4368.2652  0.032013013    4368.4073    175.62137 
  356600  0.066236638    4368.2647  0.031417703    4368.3954    175.62121 
  356700  0.067806941    4368.2647  0.037252776    4368.4036    175.62117 
  356800  0.070747422    4368.2675  0.035760147    4368.4093    175.62088 
  356900  0.072538712    4368.2633  0.035544149    4368.4076    175.62176 
  357000   0.07630247    4368.2638  0.045251426    4368.4234    175.62031 
  357100  0.067373154    4368.2711  0.041296298    4368.4134     175.6204 
  357200  0.066554971    4368.2703  0.039152156    4368.4092    175.62048 
  357300  0.075410261    4368.2678  0.037308061    4368.4181    175.62091 
  357400  0.072678423    4368.2612  0.043157077    4368.4133    175.62039 
  357500  0.076478597    4368.2632  0.042815999    4368.4207    175.62091 
  357600  0.086744193    4368.2671   0.04056462    4368.4377    175.61983 
  357700  0.072758569    4368.2715  0.057007708    4368.4376    175.61942 
  357800  0.085515346    4368.2688  0.040836689    4368.4378    175.62072 
  357900  0.076396995    4368.2727  0.039905054    4368.4271    175.61966 
  358000  0.081914584    4368.2617  0.050701906    4368.4352     175.6208 
  358100  0.088138253    4368.2698  0.043601989    4368.4455    175.61996 
  358200  0.077682135    4368.2668  0.039854379    4368.4231     175.6217 
  358300  0.069548087      4368.27  0.043071315    4368.4173    175.62104 
  358400  0.068596097    4368.2625  0.036305581    4368.4016     175.6203 
  358500  0.071501653    4368.2681  0.033815158    4368.4091    175.62123 
  358600  0.078317833    4368.2658   0.03819062    4368.4213     175.6212 
  358700  0.074159628    4368.2694  0.047201569    4368.4278    175.61975 
  358800   0.07950684    4368.2663   0.04564372    4368.4312    175.61986 
  358900  0.079101004    4368.2659  0.041568802     4368.426    175.62023 
  359000  0.077383618    4368.2719  0.036588239    4368.4245    175.61988 
  359100  0.071774687    4368.2714  0.037651568    4368.4166    175.62014 
  359200  0.067057325    4368.2615  0.041975882     4368.404    175.61993 
  359300  0.077309102    4368.2674  0.039455028    4368.4227    175.62044 
  359400  0.076479153    4368.2715    0.0338083      4368.42    175.62089 
  359500  0.072594026    4368.2707  0.033922527    4368.4135    175.62057 
  359600  0.063333404     4368.269  0.039639777    4368.4036    175.62056 
  359700  0.069172898    4368.2694  0.040064177    4368.4131    175.62062 
  359800  0.079454068     4368.271  0.031003138    4368.4211    175.62062 
  359900  0.078061182    4368.2728  0.045707687    4368.4355    175.61979 
  360000  0.082521131    4368.2683  0.038199286    4368.4302     175.6208 
  360100  0.076249592    4368.2686  0.038607328    4368.4215    175.62089 
  360200  0.073448998    4368.2683  0.034857582    4368.4133    175.62012 
  360300   0.07514267    4368.2716  0.022214103    4368.4064    175.62062 
  360400  0.065867983    4368.2689  0.038316821    4368.4059    175.62015 
  360500  0.065666177     4368.265  0.039917547    4368.4034    175.62009 
  360600  0.070714733    4368.2714  0.031718261    4368.4091     175.6203 
  360700  0.065990925    4368.2679  0.037719617    4368.4046    175.62049 
  360800  0.062279486    4368.2659  0.045500251    4368.4047    175.61963 
  360900  0.076692294    4368.2706  0.030955311    4368.4165     175.6208 
  361000   0.06752479    4368.2652  0.039879269    4368.4063    175.62185 
  361100  0.072214881    4368.2707  0.032049474     4368.411    175.62034 
  361200  0.068736322    4368.2684  0.035034017    4368.4065     175.6203 
  361300  0.067225158    4368.2657  0.040539048     4368.407    175.62029 
  361400  0.077049414    4368.2718  0.035211112    4368.4225     175.6212 
  361500  0.073847877    4368.2704  0.044239036    4368.4253    175.62048 
  361600  0.075304882    4368.2664   0.03436663    4368.4137    175.62046 
  361700  0.066553665    4368.2679   0.04304796    4368.4107    175.61935 
  361800  0.076101689    4368.2696  0.030748705    4368.4144    175.62049 
  361900  0.071469673    4368.2685  0.033558987    4368.4092     175.6209 
  362000  0.073141566    4368.2685  0.035015019    4368.4131     175.6204 
  362100  0.076231826    4368.2674  0.035998207    4368.4177    175.62148 
  362200  0.080005306    4368.2703  0.035669489    4368.4259    175.62089 
  362300  0.070713907     4368.267  0.044345259    4368.4173    175.61995 
  362400  0.078767624    4368.2751  0.036930375    4368.4301    175.61998 
  362500  0.079807653    4368.2697  0.034883282    4368.4242    175.61971 
  362600  0.070191993    4368.2712  0.048079054    4368.4244     175.6202 
  362700  0.077721692    4368.2699  0.052237732    4368.4387    175.61989 
  362800  0.074976239    4368.2727  0.057911441     4368.443    175.61902 
  362900   0.07391311    4368.2724  0.049653806    4368.4329    175.61995 
  363000    0.0776299    4368.2664  0.042843167    4368.4256    175.62059 
  363100  0.075673829    4368.2677  0.038061443    4368.4192    175.62027 
  363200  0.081229279    4368.2583  0.044052372    4368.4241    175.62088 
  363300  0.080318655    4368.2682   0.04203895    4368.4307    175.62067 
  363400  0.080977831    4368.2692   0.05150223    4368.4421    175.62149 
  363500  0.067997791    4368.2661  0.038424948    4368.4065    175.61985 
  363600   0.07077601    4368.2784  0.034665882    4368.4192    175.62037 
  363700  0.072519643    4368.2689  0.033231056    4368.4109    175.62055 
  363800  0.065920108    4368.2569  0.046161622    4368.4018    175.62043 
  363900  0.080432458    4368.2638  0.034642658     4368.419     175.6203 
  364000  0.080439986    4368.2615  0.033918414     4368.416    175.62038 
  364100   0.07468964    4368.2645  0.033747078    4368.4102    175.62018 
  364200  0.090048171    4368.2729  0.036726485    4368.4446    175.62039 
  364300  0.086705533     4368.266   0.03982786    4368.4358    175.62081 
  364400  0.084133362    4368.2657   0.03665132    4368.4284    175.62045 
  364500  0.073941907    4368.2538  0.034043326    4368.3987    175.62151 
  364600  0.073054784    4368.2732  0.039237315    4368.4219    175.62096 
  364700  0.067879171    4368.2628  0.041230945    4368.4058    175.61984 
  364800  0.075182627    4368.2657  0.041392794    4368.4198     175.6207 
  364900  0.074560054    4368.2662  0.036824853    4368.4148    175.62083 
  365000  0.069875519    4368.2629  0.037877962    4368.4055    175.62034 
  365100  0.074316213    4368.2673  0.040000472    4368.4186     175.6205 
  365200  0.073924926    4368.2679  0.032592542    4368.4113    175.62168 
  365300  0.075698715    4368.2752  0.031819232    4368.4204    175.62096 
  365400  0.072796923    4368.2665  0.028849631    4368.4045    175.62042 
  365500  0.065692826    4368.2707  0.040451473    4368.4096    175.62042 
  365600  0.073831919    4368.2659  0.039107683    4368.4157    175.62061 
  365700  0.076067566    4368.2695  0.040151025    4368.4237    175.62111 
  365800  0.082891994    4368.2732  0.037583269     4368.435    175.62091 
  365900   0.08152463    4368.2691  0.032982829    4368.4243    175.62071 
  366000  0.078052373     4368.265  0.027776212    4368.4098    175.62029 
  366100  0.077849408    4368.2713  0.032736282    4368.4208    175.62103 
  366200  0.067994108    4368.2549  0.041786994    4368.3986    175.62062 
  366300   0.07679581    4368.2674  0.031283297    4368.4138    175.62175 
  366400  0.068857709    4368.2682  0.038200372    4368.4096    175.61991 
  366500  0.075394452    4368.2678  0.037110059     4368.418    175.62074 
  366600  0.069034753    4368.2659  0.046448343    4368.4158    175.62023 
  366700  0.081924072    4368.2644  0.040068886    4368.4273    175.62103 
  366800  0.076643903    4368.2663  0.038684894    4368.4199    175.62106 
  366900  0.067467933    4368.2643  0.041304415    4368.4067    175.62011 
  367000  0.069710564    4368.2605  0.037144767    4368.4021    175.61951 
  367100  0.069649463    4368.2618  0.037804548     4368.404    175.62178 
  367200  0.071984718     4368.267  0.034256375    4368.4091    175.62105 
  367300  0.070399108    4368.2613  0.042525992    4368.4094    175.62051 
  367400   0.07909261    4368.2641  0.036977311    4368.4197    175.62174 
  367500  0.090110247     4368.264  0.044162218    4368.4433    175.61975 
  367600  0.082410549     4368.264  0.041914268    4368.4295    175.62038 
  367700  0.069715554    4368.2669  0.044423075    4368.4159    175.62151 
  367800  0.081765097    4368.2672  0.037746838    4368.4275     175.6205 
  367900  0.069504958     4368.271  0.041059759    4368.4163    175.61943 
  368000  0.078786549     4368.273  0.034272694    4368.4253    175.61971 
  368100  0.074521673    4368.2725  0.032222833    4368.4164    175.62108 
  368200  0.082453404    4368.2687   0.03446299    4368.4267    175.62196 
  368300   0.07721272     4368.263  0.040386513    4368.4191    175.61996 
  368400  0.089042385    4368.2676   0.03677736    4368.4379    175.61996 
  368500   0.08315981    4368.2619  0.034315791    4368.4209    175.62175 
  368600  0.077913359    4368.2676  0.043909021    4368.4283    175.62045 
  368700  0.079901655    4368.2595  0.035769246    4368.4151    175.62025 
  368800  0.070102642    4368.2636  0.033986495    4368.4027    175.62025 
  368900  0.077061548    4368.2623   0.04184038    4368.4197    175.62015 
  369000  0.087761753    4368.2631  0.041343169     4368.436    175.62066 
  369100  0.084591856    4368.2669  0.031204305    4368.4249    175.62055 
  369200  0.084120755    4368.2576  0.038783094    4368.4225    175.62152 
  369300  0.082701186    4368.2666  0.033328898    4368.4238    175.62082 
  369400  0.064382419    4368.2656  0.034124847    4368.3962    175.62057 
  369500  0.073897652    4368.2566  0.035446663    4368.4028    175.62205 
  369600  0.088448153    4368.2564  0.036301442    4368.4253    175.62127 
  369700  0.077809927    4368.2621  0.041742726    4368.4205     175.6212 
  369800  0.078850384    4368.2586  0.047075564    4368.4239    175.62008 
  369900  0.066760023    4368.2653  0.044382819    4368.4097    175.62124 
  370000  0.065489225    4368.2663  0.049962016    4368.4144    175.62089 
  370100  0.079800273    4368.2699   0.03768936    4368.4272    175.62205 
  370200  0.079918165    4368.2674  0.040047309    4368.4272    175.62051 
  370300  0.081257708    4368.2628  0.046925077    4368.4315    175.62106 
  370400  0.076958314    4368.2592  0.037634413    4368.4121    175.62117 
  370500  0.080565623    4368.2611  0.036476661    4368.4183    175.62038 
  370600  0.087159006    4368.2669  0.034305991    4368.4319    175.62052 
  370700  0.082603284    4368.2654   0.04856256    4368.4377    175.62003 
  370800  0.083076102    4368.2645  0.030599744    4368.4196    175.62044 
  370900   0.07404045    4368.2642  0.044623397    4368.4198    175.62033 
  371000  0.065708059    4368.2607  0.036298316    4368.3954    175.62024 
  371100  0.079392241    4368.2624  0.037194657    4368.4186    175.62003 
  371200  0.083586091    4368.2687  0.029268008    4368.4233    175.62141 
  371300  0.075799631    4368.2711  0.037053201    4368.4218    175.62014 
  371400  0.070352157    4368.2645  0.035009841     4368.405    175.62056 
  371500  0.068317035    4368.2729  0.030724316    4368.4061    175.62091 
  371600  0.076635428    4368.2692  0.029527294    4368.4136    175.61998 
  371700  0.078248929    4368.2599  0.033634176    4368.4109    175.62048 
  371800    0.0759374    4368.2693  0.030414357    4368.4135    175.62055 
  371900  0.070420241    4368.2679  0.036379078    4368.4098    175.62046 
  372000  0.074831391    4368.2586  0.034381886    4368.4052    175.62172 
  372100  0.076311447    4368.2663  0.038513457    4368.4192    175.62082 
  372200  0.073220095    4368.2569  0.041958735    4368.4086    175.62032 
  372300  0.076149018    4368.2661  0.036721871     4368.417    175.62062 
  372400  0.073613999    4368.2646  0.046845759    4368.4218       175.62 
  372500  0.073864911    4368.2691  0.031757729    4368.4116    175.62061 
  372600   0.06758656     4368.269  0.034056165    4368.4044    175.62111 
  372700  0.070984374    4368.2707  0.040834516    4368.4179    175.62086 
  372800  0.072105357    4368.2672  0.030709308     4368.406    175.62164 
  372900  0.063217441    4368.2668  0.044517045    4368.4061    175.62084 
  373000  0.074061452     4368.273  0.032251571    4368.4162    175.62141 
  373100  0.068471451    4368.2674  0.034531589    4368.4045    175.62102 
  373200  0.081531144    4368.2756  0.031234291     4368.429    175.62167 
  373300  0.077920025    4368.2665  0.047669087     4368.431    175.61991 
  373400  0.079874807    4368.2589  0.034592374    4368.4132    175.62102 
  373500  0.079523343     4368.262  0.035898643    4368.4171    175.62075 
  373600  0.071351305    4368.2639  0.049193874    4368.4201    175.61957 
  373700  0.077058965    4368.2655  0.042139655    4368.4231    175.62037 
  373800  0.062957939    4368.2632  0.042857594    4368.4004    175.62064 
  373900  0.068983094    4368.2613  0.043072164    4368.4078    175.62089 
  374000  0.080412766     4368.258  0.033584895    4368.4121    175.62095 
  374100  0.083685908    4368.2622  0.043713921    4368.4314    175.62025 
  374200  0.082983816    4368.2691  0.047090904    4368.4406     175.6204 
  374300  0.079159981    4368.2612   0.03990023    4368.4197    175.62042 
  374400  0.071730147    4368.2691  0.036890639    4368.4135    175.62089 
  374500  0.074680853    4368.2689  0.031812616    4368.4127    175.62102 
  374600     0.070865    4368.2648  0.034590401    4368.4057    175.62031 
  374700  0.077737747    4368.2656  0.039233105    4368.4214     175.6211 
  374800  0.077195992    4368.2657   0.03732314    4368.4188     175.6202 
  374900  0.075727416    4368.2646  0.039515249    4368.4176    175.62141 
  375000  0.083566808    4368.2644  0.049398956    4368.4391    175.62072 
  375100  0.084600529    4368.2643  0.049338536    4368.4404    175.62023 
  375200  0.083614973    4368.2623  0.047745662    4368.4354    175.61995 
  375300  0.082218953    4368.2656  0.036244061     4368.425    175.62019 
  375400  0.084063088    4368.2673   0.03662076    4368.4299    175.62078 
  375500  0.065960692    4368.2598  0.034704343    4368.3934    175.62083 
  375600  0.063196502    4368.2685  0.040289214    4368.4035    175.61976 
  375700  0.068993801    4368.2605  0.038515584    4368.4024     175.6208 
  375800  0.073644312    4368.2688  0.035088872    4368.4143     175.6201 
  375900  0.077750075    4368.2639  0.036487997    4368.4169    175.62024 
  376000  0.079739777    4368.2578  0.040226034    4368.4176     175.6203 
  376100  0.092357942    4368.2652  0.033009572    4368.4367    175.62104 
  376200  0.084155503    4368.2658  0.038594208    4368.4305    175.62078 
  376300  0.078398574    4368.2684   0.04253908    4368.4284    175.62066 
  376400  0.075812858     4368.265   0.04140832    4368.4201    175.62084 
  376500  0.077436922     4368.269  0.032705111    4368.4177    175.62113 
  376600  0.069589693    4368.2662  0.037233359    4368.4078    175.62065 
  376700  0.075888151    4368.2654  0.042386512    4368.4215    175.61965 
  376800  0.073821858    4368.2686  0.038152134    4368.4174    175.62099 
  376900  0.067037949    4368.2608  0.029327567    4368.3906    175.62065 
  377000   0.07828298    4368.2634   0.03500503    4368.4158    175.62119 
  377100   0.07883641    4368.2596  0.043601646    4368.4214    175.62087 
  377200  0.081988331    4368.2707  0.041274674    4368.4349    175.62079 
  377300  0.078797259    4368.2652  0.038416203    4368.4217    175.62053 
  377400  0.072187285    4368.2669  0.045579212    4368.4207    175.61921 
  377500  0.078363799    4368.2638  0.043231456    4368.4245    175.62001 
  377600  0.073097107    4368.2677  0.045005012    4368.4223    175.62131 
  377700  0.068042628    4368.2671  0.049128575    4368.4182     175.6213 
  377800  0.072318326    4368.2639  0.039861501    4368.4121    175.62047 
  377900  0.078938199    4368.2705  0.034918879    4368.4237    175.62123 
  378000  0.062936462    4368.2661  0.041941787    4368.4024    175.62014 
  378100  0.066769514    4368.2617  0.033650444    4368.3954    175.62141 
  378200  0.077655088    4368.2679  0.030458208    4368.4147    175.62139 
  378300  0.064693074    4368.2638  0.045869718    4368.4066    175.62058 
  378400   0.07513782    4368.2579  0.034821902    4368.4053    175.62105 
  378500  0.080183675    4368.2694  0.031989171    4368.4216    175.62077 
  378600  0.076811408     4368.265  0.036811965     4368.417    175.62133 
  378700  0.075812487    4368.2662  0.034045676    4368.4139     175.6216 
  378800  0.078451778    4368.2597  0.044242759    4368.4215    175.62043 
  378900  0.082023606    4368.2678  0.037215059    4368.4279    175.62047 
  379000  0.080764489    4368.2683  0.036529303    4368.4258    175.62061 
  379100  0.074028507    4368.2603  0.034695142     4368.406    175.62017 
  379200  0.072848168    4368.2634  0.031439768     4368.404    175.62204 
  379300  0.062593392    4368.2675  0.045260468    4368.4066    175.62016 
  379400  0.068991366    4368.2643  0.034206013    4368.4019    175.62053 
  379500  0.077927884    4368.2685  0.039840773    4368.4252    175.62025 
  379600  0.070087996    4368.2637  0.034704981    4368.4035    175.61957 
  379700  0.064692601    4368.2706  0.030084994    4368.3977     175.6211 
  379800  0.066641984    4368.2661  0.035861202    4368.4019    175.62019 
  379900  0.076663795    4368.2611  0.042955936     4368.419    175.62152 
  380000  0.073736519    4368.2591  0.035476688    4368.4051    175.62114 
  380100  0.073703324    4368.2631  0.039137342    4368.4127    175.62105 
  380200  0.072868385    4368.2656  0.044144617    4368.4189     175.6206 
  380300  0.075186906    4368.2652  0.031132281    4368.4091    175.62041 
  380400  0.078013461    4368.2714  0.043574005    4368.4319    175.62072 
  380500  0.080025033    4368.2705  0.039990246    4368.4305    175.62031 
  380600  0.072113747    4368.2667   0.03768737    4368.4125    175.62041 
  380700  0.069522369    4368.2659  0.030878427     4368.401    175.62064 
  380800  0.072998535    4368.2702   0.03747366    4368.4171    175.62133 
  380900   0.06664805    4368.2663  0.041076017    4368.4073    175.62088 
  381000  0.079929041     4368.263  0.041367346    4368.4241    175.62101 
  381100  0.077522512    4368.2655  0.031471931    4368.4132    175.62153 
  381200  0.071676539    4368.2677  0.051541762    4368.4267     175.6196 
  381300  0.081482055    4368.2703  0.033206396    4368.4257    175.62059 
  381400  0.066874275    4368.2628  0.041843214    4368.4049      175.622 
  381500  0.078963925    4368.2664   0.02897882    4368.4137    175.62041 
  381600  0.073027259    4368.2695  0.037324477    4368.4162    175.61987 
  381700  0.067555671    4368.2632  0.029699691    4368.3942    175.62049 
  381800  0.076125649    4368.2628  0.032067197     4368.409    175.61972 
  381900  0.070227135    4368.2575  0.038369557    4368.4012    175.62087 
  382000  0.074205916    4368.2621  0.037113832    4368.4104    175.62075 
  382100  0.073155069     4368.264  0.039089924    4368.4127    175.62044 
  382200  0.078299315    4368.2682  0.030371178    4368.4159    175.62031 
  382300   0.06980757    4368.2698  0.030921128    4368.4053     175.6201 
  382400  0.074076025    4368.2705  0.037246294    4368.4188    175.61985 
  382500  0.076446925    4368.2692  0.044178195    4368.4279    175.62046 
  382600   0.07778309    4368.2689  0.045083219    4368.4306    175.62067 
  382700  0.087602719    4368.2606  0.045737134    4368.4377    175.62117 
  382800   0.07460724    4368.2715  0.042242584    4368.4256     175.6205 
  382900   0.07447605    4368.2648  0.035072696    4368.4115    175.62046 
  383000  0.067542488    4368.2655  0.027948003    4368.3947    175.62097 
  383100  0.074974409    4368.2631  0.027422736    4368.4029    175.62156 
  383200  0.067977878    4368.2659  0.044513466    4368.4123    175.62098 
  383300  0.062066791    4368.2639  0.034825786    4368.3917    175.62109 
  383400  0.060917942    4368.2595  0.033888045    4368.3847    175.62061 
  383500  0.070890911    4368.2588  0.029436469    4368.3945    175.62061 
  383600  0.069869217    4368.2655  0.035053064    4368.4053    175.62074 
  383700   0.08368187    4368.2683  0.031766036    4368.4255    175.62096 
  383800  0.072957461    4368.2679  0.037919672    4368.4152    175.62059 
  383900  0.070351116     4368.262  0.039553051     4368.407     175.6213 
  384000  0.062123858    4368.2699  0.030114685    4368.3931    175.62141 
  384100  0.072324255     4368.265  0.030409966    4368.4038    175.62103 
  384200  0.077836358      4368.26  0.033287291    4368.4099    175.62112 
  384300  0.085980545    4368.2735  0.037622663      4368.44    175.62066 
  384400  0.081426355    4368.2695  0.035869617    4368.4274    175.62097 
  384500  0.066403509    4368.2673  0.048046158    4368.4149    175.62139 
  384600  0.067330457    4368.2633  0.042495842    4368.4067     175.6201 
  384700  0.067956733     4368.266  0.036572406    4368.4044    175.62092 
  384800  0.074718787    4368.2633  0.035362725    4368.4106    175.62079 
  384900  0.072482681    4368.2675  0.035931439    4368.4121    175.62156 
  385000  0.075182292    4368.2687  0.031526926    4368.4129    175.62018 
  385100  0.076845092    4368.2677  0.031867374    4368.4147    175.62048 
  385200  0.076247189     4368.264  0.035468506    4368.4137    175.62064 
  385300  0.079824876    4368.2647  0.040332357    4368.4247    175.62059 
  385400  0.078094475    4368.2659  0.036479917    4368.4194    175.61985 
  385500  0.069986888    4368.2679  0.040691521    4368.4135    175.62074 
  385600  0.082268208    4368.2624  0.044464023    4368.4301     175.6207 
  385700   0.08554751    4368.2642  0.034843562    4368.4273    175.62042 
  385800  0.074409935    4368.2615  0.037376844    4368.4104    175.62019 
  385900  0.067013925    4368.2677  0.034795154    4368.4029    175.62064 
  386000   0.07675041    4368.2709  0.030985961     4368.417    175.62129 
  386100   0.06445766    4368.2623  0.033616141    4368.3925     175.6207 
  386200  0.083433798    4368.2694  0.040699494    4368.4351    175.62147 
  386300  0.078131243    4368.2658  0.039819156    4368.4227    175.62007 
  386400  0.071428176    4368.2666  0.030335905     4368.404    175.62015 
  386500   0.06632581    4368.2725  0.040818517    4368.4128     175.6205 
  386600   0.07439133    4368.2663  0.031606533    4368.4094    175.62074 
  386700  0.068330211    4368.2641   0.02829854    4368.3948    175.62105 
  386800  0.066968079    4368.2739  0.032716104     4368.407    175.62081 
  386900  0.066694439    4368.2683  0.039796254    4368.4081    175.61974 
  387000  0.071006326    4368.2671  0.038396767    4368.4119    175.62087 
  387100  0.079657502    4368.2639  0.043217528    4368.4265    175.62039 
  387200  0.076699506    4368.2674  0.043730439    4368.4261     175.6206 
  387300  0.076995612    4368.2688  0.039858959     4368.424    175.62071 
  387400  0.081383563    4368.2641  0.031374853    4368.4175    175.61984 
  387500   0.07379285    4368.2698  0.041374717    4368.4218     175.6194 
  387600  0.074345952    4368.2629  0.036839835    4368.4112    175.62028 
  387700  0.078511512    4368.2727  0.036824177    4368.4272    175.62105 
  387800  0.081081978    4368.2658  0.041107352    4368.4284    175.62092 
  387900  0.077685783    4368.2667  0.032751483    4368.4159    175.62059 
  388000  0.071092629    4368.2617  0.035879995    4368.4042    175.61932 
  388100  0.069416726    4368.2725   0.03816959    4368.4147    175.62031 
  388200  0.076237762    4368.2646  0.036108995     4368.415    175.62048 
  388300  0.080566347    4368.2677  0.036429726    4368.4248    175.61952 
  388400  0.087045965    4368.2715   0.03973109    4368.4417    175.62136 
  388500  0.088105631    4368.2645   0.03414266    4368.4307    175.62099 
  388600  0.081574454    4368.2708  0.041605745    4368.4346    175.62066 
  388700  0.081887595    4368.2707  0.038862955    4368.4323    175.62114 
  388800  0.077036636    4368.2736  0.046969963     4368.436    175.61978 
  388900  0.076118782    4368.2619  0.046129116    4368.4221    175.61981 
  389000   0.06737712    4368.2692  0.037447926    4368.4076    175.61955 
  389100  0.073400165    4368.2701  0.034953433     4368.415    175.62133 
  389200  0.071397737    4368.2698  0.033311867    4368.4101    175.62174 
  389300  0.075311409     4368.266  0.036851699    4368.4158    175.62034 
  389400  0.074748098    4368.2689  0.030563759    4368.4115    175.62072 
  389500  0.078735169    4368.2759  0.033061467    4368.4269    175.62034 
  389600  0.070593843     4368.267  0.037580297    4368.4104    175.62086 
  389700  0.088567762    4368.2708  0.036343954    4368.4399    175.62064 
  389800  0.077072512    4368.2644  0.041193452    4368.4211    175.62099 
  389900  0.074008207    4368.2666  0.036713965    4368.4143     175.6221 
  390000  0.065429112    4368.2587   0.02902724    4368.3858     175.6208 
  390100  0.067325449    4368.2703  0.031936004    4368.4031    175.62144 
  390200  0.071142103    4368.2657  0.036267011    4368.4086    175.62066 
  390300  0.073137449    4368.2677  0.037591657    4368.4149    175.62031 
  390400  0.069012849    4368.2618  0.034544295    4368.3998    175.62073 
  390500   0.06671993    4368.2684  0.035009002    4368.4034    175.61997 
  390600  0.066008741    4368.2708  0.036182037    4368.4059    175.62143 
  390700  0.065762917    4368.2753  0.045107926     4368.419    175.62139 
  390800  0.074659976    4368.2693  0.030649673    4368.4118    175.62119 
  390900  0.077173788    4368.2688  0.046496617    4368.4309    175.62074 
  391000  0.079981757      4368.27  0.044231939    4368.4341    175.61986 
  391100  0.075795274    4368.2713  0.041043764    4368.4259    175.62044 
  391200  0.084708203    4368.2669   0.04219718     4368.436     175.6203 
  391300  0.089617722    4368.2709  0.036405531    4368.4417    175.62126 
  391400  0.078828172    4368.2672  0.033375681    4368.4187    175.62074 
  391500  0.077983156    4368.2693  0.036311043    4368.4225    175.62101 
  391600  0.080708463    4368.2682  0.035281683    4368.4244    175.62092 
  391700  0.082348094    4368.2673  0.039362581    4368.4301    175.62044 
  391800  0.075754578    4368.2698  0.040685655    4368.4241    175.62109 
  391900  0.073587242    4368.2652  0.038498419     4368.414    175.62117 
  392000  0.075110276    4368.2656  0.028307838    4368.4065    175.62134 
  392100  0.074376459    4368.2676  0.035942588     4368.415    175.62073 
  392200  0.077649508    4368.2618  0.048519946    4368.4267    175.62038 
  392300  0.081934603    4368.2679  0.041391003    4368.4321    175.62121 
  392400   0.08352686    4368.2654  0.046274789    4368.4369    175.62025 
  392500  0.081297976    4368.2629  0.041899774    4368.4266    175.62084 
  392600  0.074747686    4368.2673  0.040539536    4368.4199    175.62082 
  392700  0.068340122    4368.2633  0.035668316    4368.4014    175.62084 
  392800  0.070193532    4368.2684  0.031527049    4368.4051    175.62088 
  392900  0.078098017      4368.27  0.041458672    4368.4285     175.6197 
  393000  0.078659736    4368.2678  0.036605398    4368.4223     175.6213 
  393100  0.070433141    4368.2632  0.046127085    4368.4149    175.62083 
  393200  0.083019873    4368.2632  0.041248419    4368.4288    175.61983 
  393300   0.08077427    4368.2681  0.033055005    4368.4222    175.62078 
  393400  0.077450029    4368.2681  0.032773663     4368.417    175.62175 
  393500  0.076684104    4368.2693  0.039775803    4368.4241    175.62037 
  393600  0.073277374    4368.2609  0.043748645    4368.4145    175.62109 
  393700  0.076284831     4368.272  0.034448439    4368.4207    175.62138 
  393800  0.075914672    4368.2639  0.036817882    4368.4145    175.62056 
  393900  0.081878991     4368.267  0.038068731    4368.4278     175.6209 
  394000  0.072883412    4368.2689  0.048946487    4368.4271    175.62082 
  394100  0.075483384    4368.2629  0.041158409    4368.4172    175.62144 
  394200  0.082727114    4368.2621  0.035643611    4368.4218    175.62105 
  394300  0.079052272    4368.2611  0.036240933    4368.4158    175.62048 
  394400  0.070682423    4368.2733  0.033499301    4368.4128     175.6203 
  394500  0.073431254    4368.2657  0.043251069    4368.4191    175.62026 
  394600  0.067571369     4368.265  0.036256605    4368.4026    175.62091 
  394700  0.067508939    4368.2631  0.048936122    4368.4132    175.62092 
  394800  0.067871221    4368.2673  0.035422008    4368.4045    175.62076 
  394900  0.075344025    4368.2618  0.033194771     4368.408    175.62013 
  395000  0.071983735    4368.2663  0.029200962    4368.4034    175.62038 
  395100  0.075549691    4368.2711  0.032359511    4368.4167    175.62034 
  395200  0.079666546     4368.268  0.038473556    4368.4258     175.6198 
  395300  0.090068297    4368.2634  0.030614757     4368.429    175.62216 
  395400  0.074311801    4368.2669  0.033617569    4368.4119     175.6211 
  395500  0.071643551    4368.2655  0.031677877    4368.4045    175.62185 
  395600  0.068737622    4368.2644  0.037109386    4368.4046    175.62059 
  395700  0.081361723    4368.2715  0.044155873    4368.4376    175.62013 
  395800  0.080380368    4368.2666  0.033424113    4368.4205    175.62011 
  395900  0.073247932    4368.2695  0.034197668    4368.4135    175.62017 
  396000  0.084308582    4368.2707  0.034407017    4368.4315     175.6212 
  396100  0.069970155    4368.2714  0.037322231    4368.4136    175.61966 
  396200  0.081341583    4368.2677  0.033653784    4368.4232    175.62021 
  396300  0.072654766    4368.2662  0.037252813    4368.4124    175.61994 
  396400  0.079086313    4368.2632   0.03311661    4368.4149    175.62079 
  396500  0.066836722    4368.2668  0.043033068      4368.41    175.62027 
  396600  0.070908355     4368.269  0.035015754    4368.4103     175.6211 
  396700  0.073882187    4368.2649  0.035778884    4368.4115     175.6206 
  396800  0.059131593     4368.269  0.041661195    4368.3993    175.61972 
  396900  0.073555814    4368.2674  0.040841928    4368.4185    175.62107 
  397000  0.076288368    4368.2697  0.036541216    4368.4206    175.62086 
  397100   0.07941418    4368.2618  0.040596622    4368.4215    175.61993 
  397200  0.086215247    4368.2722  0.037831953    4368.4392    175.62014 
  397300  0.085200878    4368.2732  0.039829605    4368.4407    175.61914 
  397400  0.082454685     4368.271  0.041553374    4368.4362    175.62038 
  397500  0.080867818    4368.2682  0.029649692    4368.4191    175.62078 
  397600  0.066661406     4368.268  0.029989393    4368.3979    175.62068 
  397700  0.065994444    4368.2659  0.034208896     4368.399    175.62013 
  397800  0.068169214     4368.271  0.043496836    4368.4166    175.62046 
  397900  0.068155725    4368.2659   0.03803573    4368.4061    175.62143 
  398000  0.075025767    4368.2602  0.041396203     4368.414    175.62048 
  398100  0.073073379     4368.268  0.047486769     4368.425    175.61962 
  398200  0.079254944    4368.2689  0.038952683    4368.4266    175.62086 
  398300  0.077511445    4368.2667  0.038702316    4368.4216    175.62106 
  398400  0.072450234    4368.2676  0.038323326    4368.4145    175.62146 
  398500  0.074771457    4368.2688  0.029353949    4368.4102    175.62037 
  398600  0.072755963    4368.2683  0.037132059    4368.4144    175.62002 
  398700  0.075401064    4368.2634  0.032737154    4368.4091    175.62141 
  398800  0.071343699    4368.2657  0.035919763    4368.4086     175.6212 
  398900   0.06882427    4368.2577  0.035597912    4368.3965    175.62086 
  399000  0.069020516    4368.2668  0.038164569    4368.4084    175.62058 
  399100  0.073841747    4368.2683  0.030606694    4368.4096    175.62092 
  399200  0.071680041    4368.2722   0.03818129    4368.4178    175.61967 
  399300  0.068410363    4368.2647  0.051740921    4368.4189    175.62165 
  399400  0.082685474    4368.2717  0.039057108    4368.4347    175.61944 
  399500  0.079651432    4368.2674  0.031487162    4368.4183    175.62118 
  399600  0.076890185     4368.269  0.031432271    4368.4157    175.62152 
  399700   0.06845314    4368.2632  0.039891051    4368.4057     175.6204 
  399800  0.075988354    4368.2631  0.036923274    4368.4139    175.62084 
  399900  0.077795747    4368.2728  0.025932539    4368.4153    175.62079 
  400000  0.061965485     4368.265  0.041142805     4368.399    175.62077 
  400100  0.077484933    4368.2621   0.02674722     4368.405    175.62069 
  400200  0.081339816    4368.2657  0.032262571    4368.4199      175.621 
  400300  0.078429216    4368.2661  0.033885433    4368.4176    175.62078 
  400400   0.08281724    4368.2621  0.031537076    4368.4178    175.62109 
  400500  0.068127072    4368.2655  0.039267592    4368.4069    175.62076 
  400600   0.07691503    4368.2572  0.042658465    4368.4151    175.62021 
  400700  0.088805423    4368.2687  0.035350656    4368.4371    175.62014 
  400800  0.081679417      4368.27  0.033456049    4368.4259    175.62117 
  400900  0.073711583    4368.2696  0.043779367    4368.4239    175.62007 
  401000  0.065165826    4368.2669  0.035717113    4368.4003     175.6207 
  401100  0.072397299    4368.2723  0.037565359    4368.4183    175.62048 
  401200   0.07456991    4368.2628  0.037094621    4368.4116    175.62084 
  401300  0.079416559    4368.2676  0.029545186    4368.4162     175.6206 
  401400   0.07195669     4368.266  0.035272593    4368.4091    175.62118 
  401500  0.078161214    4368.2638  0.046387473    4368.4273    175.62095 
  401600  0.079522553    4368.2643  0.043404207    4368.4269    175.62048 
  401700  0.073535654    4368.2723  0.040554334    4368.4231    175.62017 
  401800  0.076973566    4368.2642  0.041448363    4368.4211    175.62124 
  401900  0.071833915    4368.2727  0.050401671    4368.4307    175.61969 
  402000  0.075447979     4368.274  0.040108698    4368.4271    175.62036 
  402100  0.073297918    4368.2642   0.03730401    4368.4114    175.62061 
  402200  0.075523367    4368.2698  0.046609213    4368.4297    175.62058 
  402300  0.073151174    4368.2637  0.041169268    4368.4146    175.62045 
  402400  0.067916302    4368.2636   0.03743614    4368.4029    175.62086 
  402500  0.071120519    4368.2661  0.035143099    4368.4079    175.62128 
  402600   0.07067743     4368.266  0.032942745    4368.4049     175.6215 
  402700  0.067286534    4368.2692  0.034532963    4368.4046    175.62109 
  402800   0.07351993    4368.2705  0.036578381    4368.4172    175.62005 
  402900  0.073990869    4368.2646  0.030379469    4368.4059    175.62157 
  403000  0.074081274    4368.2715  0.034587158    4368.4171    175.62089 
  403100  0.075750226    4368.2707  0.039667665    4368.4239    175.62112 
  403200  0.074788697    4368.2693  0.039204901    4368.4206    175.62043 
  403300  0.072024839    4368.2659  0.039474062    4368.4133    175.62034 
  403400  0.079480648    4368.2675  0.043889916    4368.4305    175.61995 
  403500  0.092267039    4368.2647  0.040454813    4368.4435    175.61988 
  403600  0.078618529    4368.2654  0.041760995     4368.425     175.6212 
  403700  0.082225167    4368.2705  0.039128265    4368.4329    175.62025 
  403800  0.068236023    4368.2642  0.048206224    4368.4147    175.62024 
  403900  0.080653229    4368.2688  0.037968082    4368.4277    175.62056 
  404000  0.077460677    4368.2668  0.044880333    4368.4278    175.62001 
  404100  0.076090839    4368.2655  0.036946572    4368.4165    175.62001 
  404200  0.085386898    4368.2659   0.03244853    4368.4263    175.62062 
  404300    0.0740847    4368.2722  0.043075476    4368.4263    175.61971 
  404400   0.07370914    4368.2703  0.042360335    4368.4231    175.62124 
  404500  0.076195542    4368.2676  0.038309698    4368.4202    175.62055 
  404600  0.074525691    4368.2675   0.04215122    4368.4213    175.61982 
  404700  0.079759466     4368.264  0.040147954    4368.4237    175.62095 
  404800  0.078591086    4368.2696  0.042630315    4368.4301    175.62045 
  404900  0.075187647    4368.2713   0.04119173    4368.4252    175.62078 
  405000  0.082712633    4368.2682  0.039438636    4368.4316    175.62025 
  405100  0.087695623    4368.2697   0.03349003    4368.4346    175.62042 
  405200  0.078307081    4368.2701  0.035163131    4368.4226    175.62061 
  405300   0.06718214    4368.2714  0.035161613    4368.4073    175.62081 
  405400  0.073258827    4368.2699  0.039337846    4368.4191    175.62066 
  405500  0.071821235    4368.2699  0.033820722    4368.4114    175.61976 
  405600  0.076580694    4368.2717  0.042077681    4368.4286    175.62047 
  405700  0.078227561    4368.2676  0.040119951     4368.425    175.62037 
  405800  0.076166701    4368.2739  0.053381274    4368.4415    175.62052 
  405900   0.07442595    4368.2636  0.041647631    4368.4168    175.62084 
  406000  0.074178292    4368.2687  0.032927117    4368.4128    175.62088 
  406100  0.073895292    4368.2678  0.038795024    4368.4174    175.61962 
  406200  0.078833139    4368.2724  0.043934574    4368.4345    175.62108 
  406300  0.088488776    4368.2651  0.043976966    4368.4418    175.61978 
  406400  0.066171074    4368.2711  0.049954626    4368.4203    175.62121 
  406500  0.070620989    4368.2665  0.042406254    4368.4148    175.62108 
  406600  0.073770663    4368.2665  0.032376391    4368.4095    175.62051 
  406700   0.07034149    4368.2696  0.054881016    4368.4299    175.62046 
  406800  0.087935072    4368.2695  0.055742563    4368.4571    175.62069 
  406900  0.086531305    4368.2661  0.038383445    4368.4342    175.62044 
  407000  0.085008581    4368.2669  0.033922788    4368.4282    175.62025 
  407100  0.089508824     4368.266  0.038020369    4368.4382    175.62097 
  407200  0.077603979     4368.263  0.049270091    4368.4286    175.61981 
  407300  0.085266513    4368.2654  0.039594544    4368.4328    175.62113 
  407400  0.079723515     4368.271  0.042297228    4368.4328    175.62034 
  407500  0.071022916    4368.2668  0.037737209     4368.411    175.62033 
  407600  0.065045665    4368.2674  0.043899105    4368.4088    175.62063 
  407700  0.068593356    4368.2663  0.028399528    4368.3975    175.62081 
  407800  0.075704212    4368.2684  0.037056285    4368.4189    175.62021 
  407900  0.067614297    4368.2635  0.038748487    4368.4036     175.6213 
  408000  0.073296662      4368.26  0.036285333    4368.4061    175.62096 
  408100  0.079773898    4368.2602   0.03041255    4368.4101    175.62092 
  408200  0.068407745    4368.2637  0.033818024       4368.4    175.62023 
  408300  0.069562939    4368.2723  0.027990412    4368.4046    175.62074 
  408400  0.066735623    4368.2662  0.045928163    4368.4122    175.62119 
  408500  0.068398145    4368.2638  0.032793543    4368.3991    175.62033 
  408600  0.070341267     4368.266  0.034034085    4368.4055     175.6207 
  408700  0.071035195    4368.2593  0.044174355      4368.41    175.61978 
  408800    0.0739467    4368.2644  0.038894519    4368.4141    175.62128 
  408900  0.080626242     4368.262  0.035745026    4368.4186    175.62058 
  409000  0.075680079    4368.2627  0.030622644    4368.4068    175.62143 
  409100  0.075990699    4368.2683  0.043498763    4368.4257    175.62025 
  409200  0.076088972    4368.2722  0.037981421    4368.4242    175.62041 
  409300   0.07411143    4368.2663  0.030589541     4368.408    175.62121 
  409400  0.067356747    4368.2655  0.035852893    4368.4024    175.62058 
  409500  0.074169126    4368.2616  0.042075118    4368.4149    175.62097 
  409600  0.073645192    4368.2652  0.030379018    4368.4059     175.6211 
  409700  0.077755385    4368.2616  0.033559649    4368.4117    175.62091 
  409800  0.072813907    4368.2697  0.040220634    4368.4191    175.61968 
  409900   0.07563804    4368.2705  0.041933609    4368.4258    175.62021 
  410000  0.079307135      4368.26  0.040789237    4368.4197    175.62024 
  410100  0.070197987    4368.2606  0.030689598    4368.3965    175.62128 
  410200  0.066894883    4368.2651  0.032424159    4368.3978    175.62111 
  410300  0.076018699     4368.272  0.027412174    4368.4133       175.62 
  410400  0.068200585    4368.2612  0.037024051    4368.4005    175.62007 
  410500  0.076441091     4368.266  0.030834558    4368.4114    175.62113 
  410600  0.069871835    4368.2664  0.045969884    4368.4171    175.62076 
  410700  0.071474224    4368.2607  0.041596055    4368.4094    175.61991 
  410800   0.06923815    4368.2647   0.03750291     4368.406    175.62085 
  410900  0.072461508    4368.2639  0.036519073     4368.409    175.62015 
  411000  0.072558853    4368.2687  0.038666529    4368.4161    175.62091 
  411100  0.071412965    4368.2675  0.039276005    4368.4138     175.6207 
  411200   0.07202239    4368.2647  0.035325572     4368.408    175.62183 
  411300  0.070912101    4368.2632  0.037659443    4368.4071    175.62053 
  411400  0.074248431    4368.2647  0.044652037    4368.4206    175.62023 
  411500  0.080246051    4368.2693  0.047157467    4368.4368    175.62075 
  411600   0.08300964    4368.2684  0.038115172    4368.4309    175.62126 
  411700  0.067930277    4368.2651  0.035846867    4368.4027     175.6201 
  411800  0.062794823    4368.2691  0.031993373    4368.3952    175.62048 
  411900  0.064076891    4368.2692  0.036114287    4368.4014    175.62005 
  412000  0.068414479    4368.2657  0.030921386    4368.3992    175.62072 
  412100  0.071131678    4368.2655  0.032937586     4368.405    175.62153 
  412200  0.067518544    4368.2657  0.040216569    4368.4071    175.62064 
  412300  0.077164731    4368.2695   0.04178227    4368.4269    175.62056 
  412400  0.078281201    4368.2678  0.035664202    4368.4208    175.62129 
  412500  0.082055387    4368.2698  0.037458061    4368.4303    175.62086 
  412600  0.081128527    4368.2704  0.031889012    4368.4239    175.62113 
  412700   0.07165143    4368.2698  0.037844026     4368.415    175.62046 
  412800  0.068971316    4368.2679   0.03911545    4368.4104     175.6206 
  412900  0.070676899    4368.2651  0.040302044    4368.4113    175.62069 
  413000  0.074173966     4368.265  0.043477703    4368.4197    175.62078 
  413100  0.078136373    4368.2696  0.036939054    4368.4237    175.62072 
  413200  0.065936367    4368.2626  0.038896012    4368.4003    175.62052 
  413300  0.071342681    4368.2688  0.049502503    4368.4253    175.61943 
  413400  0.076066918    4368.2614  0.035449079    4368.4109    175.62115 
  413500  0.071496254    4368.2686  0.044877685    4368.4206    175.62121 
  413600  0.082828629    4368.2709  0.032463842    4368.4275    175.62119 
  413700  0.077135344     4368.264  0.038166248    4368.4178    175.62083 
  413800  0.071847263    4368.2641  0.036905364    4368.4087    175.62067 
  413900  0.069342609    4368.2645  0.043259951    4368.4117    175.61961 
  414000  0.063135179    4368.2665  0.052543711    4368.4137     175.6198 
  414100  0.075476814    4368.2723   0.04839941    4368.4338    175.61967 
  414200  0.076029052     4368.264  0.031861017    4368.4098    175.62106 
  414300  0.066146576    4368.2655  0.041288613    4368.4059     175.6206 
  414400  0.070512855     4368.263   0.03373078    4368.4025    175.62111 
  414500   0.06554794    4368.2675  0.040720548    4368.4065    175.61949 
  414600  0.073904473    4368.2585  0.042637629     4368.412    175.62007 
  414700   0.08517044    4368.2602  0.049584311    4368.4374    175.62015 
  414800  0.074768241    4368.2586  0.046520376    4368.4172    175.62146 
  414900  0.063282503    4368.2685  0.047395384    4368.4108    175.62018 
  415000  0.061019955    4368.2646  0.050457291    4368.4065    175.62149 
  415100  0.070790073    4368.2665  0.041056398    4368.4137    175.62081 
  415200  0.070918997    4368.2639  0.040618411    4368.4108    175.62083 
  415300    0.0822027    4368.2672  0.042626006    4368.4331    175.62004 
  415400  0.071610621    4368.2665  0.036527593    4368.4104    175.62058 
  415500  0.081305439    4368.2628  0.036026429    4368.4207    175.62029 
  415600  0.067436808    4368.2655  0.037747295    4368.4043    175.62068 
  415700  0.074927069     4368.255  0.039356265    4368.4067    175.62047 
  415800  0.075474337    4368.2677   0.03619622     4368.417    175.62072 
  415900  0.067685716    4368.2683  0.046204611    4368.4159     175.6203 
  416000  0.085721271    4368.2645  0.041586603    4368.4346    175.62122 
  416100  0.086466134    4368.2731  0.037760171    4368.4404    175.62065 
  416200  0.067808555    4368.2684  0.047079749    4368.4171    175.62042 
  416300  0.070939774    4368.2607   0.04021645    4368.4073    175.62125 
  416400  0.074268166    4368.2664  0.037891721    4368.4156     175.6204 
  416500  0.066769791     4368.264  0.040698802    4368.4048    175.62015 
  416600  0.069709361     4368.268   0.04443851    4368.4169    175.62039 
  416700   0.07006185    4368.2705  0.040882291    4368.4164     175.6207 
  416800  0.065483642    4368.2674  0.039571065    4368.4051       175.62 
  416900  0.065494535    4368.2681  0.039024242    4368.4053    175.62061 
  417000  0.070312558    4368.2666  0.036960387     4368.409    175.62107 
  417100  0.063538953    4368.2657   0.03011715    4368.3911    175.62009 
  417200   0.07934743    4368.2695  0.024399266    4368.4128    175.62095 
  417300  0.070323162    4368.2667  0.042650817    4368.4147    175.62081 
  417400  0.069074638    4368.2665  0.037851589    4368.4078    175.62095 
  417500  0.076856413    4368.2661  0.030133772    4368.4114    175.62128 
  417600  0.081684041    4368.2643  0.039847974    4368.4266    175.62112 
  417700  0.081903127    4368.2722  0.040642783    4368.4356    175.62091 
  417800  0.078108117     4368.263  0.044560572    4368.4247    175.62078 
  417900  0.076446687     4368.269  0.038441777     4368.422    175.61954 
  418000  0.078553969    4368.2708  0.033015035    4368.4216    175.62047 
  418100    0.0698112    4368.2662  0.035852131    4368.4066    175.62046 
  418200  0.077890529    4368.2636  0.040422277    4368.4208     175.6208 
  418300  0.069715099    4368.2611  0.036438839     4368.402    175.62066 
  418400  0.070089586    4368.2699  0.038551505    4368.4135    175.61998 
  418500  0.068817294    4368.2688  0.035368238    4368.4074    175.61937 
  418600  0.067173919    4368.2726  0.036889346    4368.4102    175.61969 
  418700  0.067879032    4368.2684  0.031208857    4368.4014    175.62119 
  418800  0.063583791    4368.2659  0.035851129    4368.3971    175.62046 
  418900  0.072478323    4368.2692  0.033163382     4368.411    175.62057 
  419000  0.080645365    4368.2715  0.040197767    4368.4325    175.62077 
  419100  0.079926961    4368.2694  0.041471183    4368.4307    175.62135 
  419200  0.067552873    4368.2651  0.048273127    4368.4146    175.62026 
  419300  0.076927869    4368.2661   0.03901786    4368.4204    175.62048 
  419400  0.072313865    4368.2633  0.034242222    4368.4059    175.62114 
  419500  0.061530766    4368.2682  0.040668682    4368.4011    175.62159 
  419600  0.078945431    4368.2678  0.037602697    4368.4237    175.62197 
  419700  0.077133725    4368.2656  0.033442367    4368.4146    175.62076 
  419800  0.078250447    4368.2627  0.037080203    4368.4171    175.62087 
  419900  0.079112089    4368.2663  0.037813874    4368.4227    175.61916 
  420000  0.070147167    4368.2667  0.035062531    4368.4069    175.62072 
  420100  0.081015872    4368.2722  0.037008238    4368.4307    175.62095 
  420200  0.082944469    4368.2627  0.041024147     4368.428    175.62054 
  420300  0.073766558    4368.2746  0.036775832    4368.4219    175.61986 
  420400  0.077897496     4368.261  0.037233099     4368.415      175.621 
  420500   0.07382434     4368.266  0.043965845    4368.4207    175.62053 
  420600  0.074000623    4368.2715  0.038583339     4368.421    175.62003 
  420700    0.0747763    4368.2693   0.02774767    4368.4091    175.62069 
  420800  0.068315926    4368.2682  0.036322322     4368.407     175.6196 
  420900  0.072065822    4368.2709  0.033946535    4368.4129    175.62053 
  421000  0.066623204    4368.2638   0.03104739    4368.3947    175.62091 
  421100  0.070687515    4368.2692  0.031756638    4368.4069    175.62047 
  421200  0.068860489    4368.2648  0.041313582    4368.4093    175.62018 
  421300  0.068256331    4368.2619  0.033164944    4368.3973    175.62081 
  421400  0.066479459    4368.2722  0.034110709     4368.406    175.62033 
  421500  0.073117662    4368.2591    0.0358809    4368.4046    175.62085 
  421600  0.077483466    4368.2687  0.044675703    4368.4295    175.61985 
  421700  0.075726085    4368.2624  0.039227934    4368.4152    175.62123 
  421800  0.074309822    4368.2656  0.042838621    4368.4198    175.62135 
  421900  0.073909815    4368.2643  0.036185348    4368.4113    175.62066 
  422000  0.064313417    4368.2704  0.034601694    4368.4014    175.62132 
  422100  0.073214163    4368.2712  0.031407374    4368.4123    175.62132 
  422200  0.065685862    4368.2625  0.041894337    4368.4028    175.62065 
  422300  0.077628637    4368.2633  0.039977018    4368.4196    175.62143 
  422400  0.082094836     4368.273  0.035094358    4368.4312     175.6196 
  422500  0.072443457    4368.2716  0.035953432    4368.4161    175.61961 
  422600  0.078022294    4368.2673  0.041415579    4368.4256     175.6206 
  422700  0.082825349    4368.2661  0.037667131    4368.4279    175.62126 
  422800  0.078980766    4368.2629  0.038691568      4368.42    175.62048 
  422900   0.07816659    4368.2668  0.033941321    4368.4179    175.62039 
  423000  0.072521527    4368.2579  0.039962465    4368.4066    175.61996 
  423100  0.068207974    4368.2595  0.035782268    4368.3975    175.62055 
  423200  0.059545546    4368.2606  0.037864926    4368.3877     175.6208 
  423300  0.061646381    4368.2671  0.034038001    4368.3936    175.62065 
  423400  0.073472769    4368.2693  0.040736112    4368.4202    175.62044 
  423500  0.064164607    4368.2689  0.037749362    4368.4028    175.62056 
  423600  0.070873266    4368.2653  0.037610101    4368.4091    175.62099 
  423700  0.082780753    4368.2643  0.038658756     4368.427    175.62066 
  423800   0.07549541    4368.2631  0.034015288    4368.4103    175.62139 
  423900  0.068559364    4368.2654   0.03479334    4368.4029    175.62061 
  424000  0.080723905    4368.2673  0.034594545    4368.4229    175.62058 
  424100  0.074553251    4368.2649   0.04376038    4368.4204    175.62032 
  424200  0.070101597    4368.2649  0.048286934    4368.4183    175.61985 
  424300  0.074361501    4368.2684  0.037514399    4368.4173    175.62105 
  424400  0.069891706    4368.2581  0.030844172    4368.3937    175.62075 
  424500  0.069026804    4368.2622  0.043367148    4368.4091    175.62035 
  424600  0.072694514    4368.2625  0.044848437    4368.4163    175.62082 
  424700  0.067944205    4368.2617   0.04018455    4368.4038    175.61987 
  424800  0.074590796    4368.2619  0.042891915    4368.4166    175.61999 
  424900  0.067816251    4368.2636   0.04253725    4368.4077    175.62024 
  425000  0.074139444    4368.2689  0.036981478     4368.417    175.62019 
  425100  0.073446494    4368.2595  0.040528049    4368.4101     175.6215 
  425200  0.065444219    4368.2612  0.050001058    4368.4093    175.61946 
  425300  0.081700299    4368.2622  0.038735474    4368.4234    175.62113 
  425400  0.082795019    4368.2651  0.048372076    4368.4376    175.62113 
  425500  0.074885045    4368.2651  0.041260555    4368.4186    175.62077 
  425600  0.060971454     4368.257  0.046820659    4368.3952    175.61979 
  425700  0.073304015    4368.2661  0.033447179    4368.4095    175.62025 
  425800  0.080281874    4368.2689  0.032169988    4368.4214    175.62011 
  425900   0.07634898    4368.2667  0.045923376    4368.4271    175.61999 
  426000  0.083391891    4368.2571  0.037900924      4368.42    175.62171 
  426100  0.086948535    4368.2692  0.037695946    4368.4372     175.6211 
  426200   0.08210009     4368.261  0.045258855    4368.4294    175.61999 
  426300  0.072582729    4368.2658  0.040677553    4368.4152    175.62041 
  426400  0.068479702    4368.2631  0.040372198    4368.4061    175.62086 
  426500  0.071111048    4368.2641   0.04015292    4368.4109    175.62046 
  426600   0.07224782    4368.2604  0.032798906    4368.4015    175.62112 
  426700  0.068221322    4368.2605  0.033296191     4368.396    175.62157 
  426800  0.068342103    4368.2641  0.039184608    4368.4058    175.62155 
  426900  0.066889419     4368.268  0.042933209    4368.4112    175.62043 
  427000  0.078317177    4368.2645  0.045689973    4368.4276    175.62105 
  427100  0.069583508    4368.2646  0.046742625    4368.4157    175.61984 
  427200  0.077315477    4368.2609  0.036775983    4368.4135     175.6211 
  427300  0.077465305    4368.2612  0.035547022    4368.4128    175.62132 
  427400  0.074079369    4368.2577  0.042244401     4368.411    175.62074 
  427500  0.076416503    4368.2645  0.039795335    4368.4188    175.62073 
  427600  0.083347481    4368.2604  0.038375907    4368.4237    175.62077 
  427700  0.081614265    4368.2621  0.034005006    4368.4185    175.62125 
  427800  0.082272503    4368.2614  0.041197619    4368.4259    175.62084 
  427900  0.077699507    4368.2652   0.03850338    4368.4201    175.62033 
  428000  0.076540512    4368.2697  0.047554542    4368.4319    175.62076 
  428100  0.084576948    4368.2672  0.037974911    4368.4319    175.62075 
  428200  0.077754001    4368.2652  0.033355294    4368.4151    175.62083 
  428300  0.073992542    4368.2615  0.039367032    4368.4118    175.62059 
  428400  0.076470161    4368.2659  0.040844541    4368.4213     175.6204 
  428500  0.084570905    4368.2737  0.048310745    4368.4487    175.61965 
  428600  0.075912256    4368.2656   0.03843286    4368.4178    175.62038 
  428700  0.080359118    4368.2657  0.036990611    4368.4231    175.62073 
  428800  0.070404752    4368.2634  0.043937525    4368.4128    175.62096 
  428900    0.0765764    4368.2702  0.037150585    4368.4222    175.62126 
  429000  0.075846935    4368.2693  0.041602721    4368.4246    175.62062 
  429100  0.076494354    4368.2695  0.032047741    4368.4162    175.62065 
  429200  0.069126791    4368.2712  0.030109524     4368.405    175.62075 
  429300  0.074516175    4368.2685  0.032229031    4368.4125    175.62057 
  429400  0.067827411    4368.2619  0.035059357    4368.3986    175.62063 
  429500  0.076128946    4368.2663  0.037266106    4368.4177    175.62053 
  429600  0.076431438    4368.2623  0.037369182    4368.4142    175.62081 
  429700  0.077296076    4368.2706  0.032241357    4368.4187    175.62001 
  429800  0.071445305    4368.2658  0.031585347    4368.4045    175.62039 
  429900  0.068931019    4368.2695  0.037369518    4368.4102    175.62056 
  430000  0.071908629    4368.2686  0.023182643    4368.3995    175.62008 
  430100  0.068174455    4368.2665  0.032075006    4368.4007    175.62001 
  430200  0.066538252    4368.2658  0.033433905    4368.3989    175.62139 
  430300  0.065305597    4368.2657  0.025561492    4368.3891    175.62111 
  430400  0.075357994    4368.2619  0.037983571    4368.4128    175.62025 
  430500  0.075069415    4368.2712  0.049788224    4368.4335    175.62043 
  430600  0.080820221    4368.2636  0.032869322    4368.4177    175.62045 
  430700  0.089345092    4368.2674  0.030324823    4368.4316     175.6215 
  430800  0.071269429    4368.2633  0.044584808    4368.4147    175.62032 
  430900  0.072329272    4368.2666  0.041849678    4368.4168    175.62078 
  431000  0.074455796    4368.2641  0.040405778    4368.4161    175.62093 
  431100  0.089853545    4368.2673  0.038410366    4368.4404    175.62138 
  431200  0.084965785    4368.2696  0.040590789    4368.4375    175.62062 
  431300  0.081140455    4368.2702  0.050990324    4368.4428     175.6202 
  431400  0.075957993    4368.2713  0.041294034    4368.4264    175.62068 
  431500  0.077922171    4368.2677  0.039529077     4368.424    175.61974 
  431600  0.085088164    4368.2674  0.036130809    4368.4311    175.62087 
  431700  0.079625789    4368.2608  0.030489387    4368.4106    175.62013 
  431800  0.075187828    4368.2612  0.032760948    4368.4066    175.62072 
  431900  0.073399833    4368.2684  0.029091663    4368.4075    175.62034 
  432000  0.073340133    4368.2625  0.039843512    4368.4123    175.62056 
  432100   0.07787584    4368.2588  0.036092436    4368.4116    175.62057 
  432200  0.067099054     4368.265  0.040086483    4368.4057    175.61938 
  432300  0.063965944    4368.2711  0.038365174    4368.4054     175.6208 
  432400  0.075890628    4368.2626  0.040671513     4368.417    175.62062 
  432500  0.081855609    4368.2644  0.030777806    4368.4178    175.61995 
  432600  0.086151677    4368.2585  0.039759546    4368.4274     175.6208 
  432700  0.081084335    4368.2673  0.043859892    4368.4327     175.6207 
  432800  0.084222122    4368.2638  0.043351842    4368.4334    175.62005 
  432900  0.076999388    4368.2644  0.040339856    4368.4202    175.62152 
  433000  0.076609423    4368.2659  0.038325788    4368.4191    175.62074 
  433100  0.077181909    4368.2699  0.028562937    4368.4141    175.62117 
  433200  0.083776675    4368.2683  0.036401397    4368.4303    175.62188 
  433300  0.081178459    4368.2712  0.041008279    4368.4338    175.62107 
  433400    0.0691504    4368.2589  0.034228843    4368.3968    175.62083 
  433500  0.074553107      4368.26  0.033811779    4368.4056     175.6214 
  433600  0.073717961    4368.2649  0.040672178     4368.416    175.62078 
  433700   0.07626784    4368.2697  0.046438117    4368.4305    175.62101 
  433800   0.07438603     4368.261  0.031852287    4368.4044    175.62073 
  433900  0.070106661    4368.2662  0.040537443    4368.4118    175.61994 
  434000   0.08059977    4368.2646  0.029694322    4368.4151    175.61945 
  434100  0.087340775    4368.2685  0.043618378     4368.443    175.62055 
  434200  0.077032403    4368.2687   0.04208404    4368.4263     175.6206 
  434300  0.081008622    4368.2706  0.036572922    4368.4286    175.62128 
  434400  0.076090384    4368.2674  0.031966072    4368.4134    175.61993 
  434500   0.07545481    4368.2626   0.02547434    4368.4012    175.62057 
  434600  0.066319436     4368.263  0.029885072    4368.3923    175.62094 
  434700   0.07912596    4368.2641  0.027386152    4368.4101    175.62048 
  434800  0.060565893    4368.2717  0.038140307    4368.4006     175.6203 
  434900  0.073974718    4368.2661  0.033138938    4368.4101    175.62079 
  435000  0.068313584     4368.263  0.032540429    4368.3979    175.62071 
  435100  0.068634366    4368.2638  0.032927041    4368.3996    175.62122 
  435200  0.076077161    4368.2643  0.026982575    4368.4053    175.62057 
  435300  0.073169303    4368.2653   0.02877478    4368.4038    175.62077 
  435400  0.073804841    4368.2605  0.037196757    4368.4083    175.62132 
  435500  0.075732299    4368.2634  0.034006191    4368.4109    175.62089 
  435600  0.084936381    4368.2603  0.038554213    4368.4261    175.62046 
  435700  0.076201221    4368.2653  0.035032367    4368.4145    175.62123 
  435800  0.062756413    4368.2669  0.034278708    4368.3952    175.62006 
  435900  0.073153942    4368.2623  0.028316514    4368.4003    175.62082 
  436000  0.067428352     4368.261  0.044784654    4368.4068    175.61953 
  436100   0.07122796    4368.2679  0.042203322    4368.4169    175.62062 
  436200   0.07337368    4368.2616   0.04531865    4368.4169    175.61959 
  436300  0.073892193    4368.2676  0.042515088    4368.4209    175.61968 
  436400  0.067600906    4368.2655  0.040297944    4368.4071    175.62052 
  436500  0.070771616     4368.264    0.0412294    4368.4113    175.62098 
  436600  0.077900401    4368.2668  0.036423653      4368.42    175.62101 
  436700   0.08733385    4368.2725  0.032025215    4368.4354    175.62144 
  436800  0.076529773    4368.2571  0.034757515    4368.4066    175.62131 
  436900  0.072528658    4368.2671  0.043354354    4368.4192    175.62005 
  437000  0.083608118    4368.2673  0.025745359    4368.4184    175.62109 
  437100  0.068763409    4368.2719  0.037030507     4368.412    175.62014 
  437200  0.078997812    4368.2602  0.039928008    4368.4185    175.62105 
  437300  0.078888348    4368.2659  0.040676286    4368.4248    175.62122 
  437400  0.080326469    4368.2643  0.041225224    4368.4259    175.62103 
  437500  0.078708157    4368.2689  0.053083479    4368.4399     175.6205 
  437600  0.079534511    4368.2645  0.034899764    4368.4186    175.62052 
  437700   0.08054414    4368.2713  0.035927563     4368.428    175.62019 
  437800   0.08277297    4368.2701  0.036731595    4368.4309    175.62034 
  437900  0.073385188    4368.2716   0.04191581    4368.4236    175.62015 
  438000  0.086577146    4368.2693  0.034435328    4368.4335    175.62016 
  438100  0.072741139    4368.2713  0.033353132    4368.4137    175.62042 
  438200  0.069030624    4368.2664  0.029263094    4368.3991    175.62076 
  438300  0.073983411      4368.27   0.03842395    4368.4193    175.62082 
  438400  0.071455781    4368.2682  0.046571963    4368.4219    175.62157 
  438500   0.08088706    4368.2665  0.040165577    4368.4279    175.62068 
  438600  0.078028598    4368.2647  0.038825983    4368.4204    175.62057 
  438700  0.075081835    4368.2714  0.037945605    4368.4219     175.6209 
  438800  0.070630222    4368.2696   0.04444674    4368.4199    175.62154 
  438900  0.073107809    4368.2721  0.029043747    4368.4107    175.62026 
  439000  0.080270667    4368.2681  0.033684983    4368.4221    175.62068 
  439100  0.089795681    4368.2717  0.044488429    4368.4508    175.62033 
  439200  0.092122461    4368.2699  0.038006379     4368.446    175.62054 
  439300  0.074156807    4368.2724  0.045638653    4368.4292    175.61977 
  439400  0.073408652    4368.2692  0.043722727     4368.423    175.62071 
  439500  0.074781298    4368.2719  0.043711917    4368.4277    175.62002 
  439600  0.075170608    4368.2687   0.04886834    4368.4303    175.62062 
  439700  0.076918032    4368.2642  0.039991699    4368.4195    175.62019 
  439800  0.071880354    4368.2686   0.03423877    4368.4105    175.61993 
  439900  0.073809749    4368.2673   0.03996929    4368.4179    175.62076 
  440000  0.076108046    4368.2674  0.041111432    4368.4226    175.62106 
  440100  0.070903986    4368.2687  0.043331691    4368.4183    175.62043 
  440200  0.074899768    4368.2653  0.038062568    4368.4156     175.6214 
  440300  0.085781666    4368.2724  0.027106599    4368.4281    175.62094 
  440400  0.073952103    4368.2645  0.038285447    4368.4136    175.61999 
  440500  0.080480003    4368.2702   0.03858951    4368.4294    175.62027 
  440600  0.075472228    4368.2589  0.042045317    4368.4141     175.6213 
  440700  0.080321459    4368.2712  0.035410478     4368.427    175.62076 
  440800  0.086552347    4368.2704   0.04496097    4368.4451    175.61991 
  440900  0.080188236    4368.2689  0.045210714    4368.4343    175.62147 
  441000  0.077524731    4368.2689  0.051048988    4368.4361    175.61991 
  441100  0.077865673    4368.2686  0.034644021    4368.4199    175.62092 
  441200  0.076866903    4368.2714  0.043349925    4368.4299    175.61959 
  441300  0.076732916    4368.2647  0.046825813    4368.4265    175.62046 
  441400  0.078482731    4368.2721  0.037033437    4368.4268    175.61979 
  441500  0.074183499    4368.2667   0.04144227    4368.4193    175.61971 
  441600  0.080129293    4368.2702   0.03662724    4368.4269    175.62101 
  441700  0.070800139    4368.2682  0.041652429     4368.416    175.62002 
  441800  0.076459194     4368.269  0.052307073    4368.4359     175.6192 
  441900  0.088552477    4368.2641  0.054134792    4368.4509     175.6203 
  442000  0.090916043    4368.2616  0.049973229    4368.4478    175.62012 
  442100  0.090106746    4368.2725  0.043824439    4368.4514    175.62116 
  442200  0.077122385    4368.2747  0.037617244    4368.4279     175.6202 
  442300  0.077407732    4368.2662  0.040168164    4368.4223    175.62071 
  442400  0.076463989    4368.2641  0.041751607    4368.4205    175.62036 
  442500  0.079231202    4368.2712  0.037785536    4368.4277    175.62027 
  442600   0.07228786    4368.2697  0.043182681    4368.4213    175.62032 
  442700  0.083952422    4368.2635  0.036353526    4368.4257     175.6211 
  442800   0.08279612    4368.2667   0.03470804    4368.4255    175.61996 
  442900  0.074741528    4368.2652  0.035650103    4368.4129    175.62104 
  443000  0.073575528    4368.2727  0.032659345    4368.4157    175.62014 
  443100  0.066767108    4368.2674  0.032107552    4368.3996     175.6194 
  443200  0.068284914    4368.2694   0.03961747    4368.4114    175.61986 
  443300  0.067331687    4368.2684  0.040783264    4368.4101     175.6205 
  443400  0.073455759    4368.2642  0.030531864    4368.4048    175.62139 
  443500  0.084531686    4368.2671  0.031216099    4368.4251    175.62052 
  443600   0.07248834     4368.261  0.036487346    4368.4061     175.6212 
  443700   0.07829521    4368.2662  0.029423828     4368.413    175.62051 
  443800  0.071468317    4368.2616   0.03784336    4368.4065    175.62042 
  443900  0.064639937    4368.2677  0.042806988    4368.4074    175.62002 
  444000  0.082313898    4368.2672  0.035531269    4368.4262    175.62077 
  444100  0.093556427    4368.2587  0.035567301    4368.4345    175.62129 
  444200   0.08571757    4368.2642  0.040023813    4368.4327    175.62096 
  444300  0.088340108    4368.2585  0.039767466    4368.4307    175.62133 
  444400  0.079041708    4368.2673  0.052279461     4368.438     175.6208 
  444500  0.082741895    4368.2686  0.044616553    4368.4372    175.62086 
  444600  0.065241578    4368.2643  0.050999768    4368.4131    175.62026 
  444700  0.081414511    4368.2596  0.050707983    4368.4323    175.62016 
  444800  0.082865124    4368.2664  0.036073363    4368.4266    175.62115 
  444900  0.072907869    4368.2656   0.03698424    4368.4119    175.62116 
  445000  0.081126285    4368.2689  0.047270931    4368.4378    175.62008 
  445100  0.073170236    4368.2643  0.047062701     4368.421    175.62017 
  445200  0.071412222    4368.2706  0.047656016    4368.4253    175.62067 
  445300  0.071734935    4368.2679  0.040255895    4368.4157    175.62195 
  445400  0.069354184    4368.2648  0.045574749    4368.4143    175.61988 
  445500  0.073036152    4368.2658  0.049887999    4368.4252    175.62089 
  445600  0.067094636    4368.2648  0.042168017    4368.4075    175.62103 
  445700  0.077540155     4368.263  0.035243426    4368.4144    175.62165 
  445800  0.073487336    4368.2636  0.041815698    4368.4155    175.62037 
  445900  0.079843938    4368.2673  0.039384397    4368.4263    175.61946 
  446000  0.063944323     4368.266  0.038290824    4368.4001     175.6216 
  446100  0.078230357    4368.2695   0.02810909    4368.4148    175.62065 
  446200  0.067129464    4368.2685  0.029308382    4368.3984    175.62079 
  446300  0.068665357    4368.2722  0.026089304    4368.4012     175.6214 
  446400  0.064597992     4368.266  0.040419511    4368.4032    175.62102 
  446500  0.066675223    4368.2686  0.035838459    4368.4044    175.62116 
  446600  0.068885209    4368.2613  0.033203847    4368.3977    175.62119 
  446700  0.074929254    4368.2704  0.032375843     4368.415    175.62016 
  446800  0.067584324    4368.2726  0.024891886    4368.3988    175.62094 
  446900  0.067526065     4368.272  0.037296471    4368.4105    175.62106 
  447000    0.0705057    4368.2661   0.03782374    4368.4096    175.62029 
  447100  0.071668008     4368.272  0.033030802    4368.4124    175.61976 
  447200   0.07279024    4368.2681  0.037758156     4368.415    175.62017 
  447300  0.067404446    4368.2607  0.035581029    4368.3973    175.61975 
  447400  0.075855024    4368.2664  0.047423061    4368.4275    175.61869 
  447500   0.08067624    4368.2738  0.047932734    4368.4426    175.62073 
  447600  0.076289782    4368.2677  0.052999216     4368.435     175.6196 
  447700  0.088438609    4368.2734  0.044783544    4368.4507    175.61989 
  447800  0.071011179    4368.2725  0.036152394    4368.4151    175.62005 
  447900   0.07171617    4368.2647  0.038899224    4368.4111    175.62047 
  448000  0.075823103    4368.2682  0.035681507    4368.4175    175.61994 
  448100  0.070366702     4368.271  0.037428979    4368.4139    175.61992 
  448200  0.074983973    4368.2706  0.033063616     4368.416    175.62067 
  448300  0.066710196    4368.2665  0.040573424     4368.407    175.61957 
  448400  0.063520895    4368.2727  0.044494534    4368.4124    175.62078 
  448500  0.071431061    4368.2735  0.041661702    4368.4222    175.62007 
  448600  0.067896818    4368.2701  0.037500334    4368.4093    175.62077 
  448700  0.067437437    4368.2698  0.039033169      4368.41    175.62002 
  448800  0.068273133    4368.2695  0.041516797    4368.4134    175.61982 
  448900  0.076809322     4368.272  0.031438713    4368.4186    175.62084 
  449000  0.072102175    4368.2638  0.030534386    4368.4024    175.62088 
  449100  0.073155811    4368.2663  0.032844995    4368.4088    175.62011 
  449200  0.075526046    4368.2684  0.041888065    4368.4235    175.61972 
  449300  0.072682444    4368.2739  0.035659466    4368.4185    175.62008 
  449400   0.07694543    4368.2679  0.038993249    4368.4223    175.61999 
  449500  0.081855052    4368.2681  0.040875719    4368.4317    175.62037 
  449600  0.072963679    4368.2669  0.039959721    4368.4162    175.62144 
  449700  0.071971457    4368.2756  0.036398768    4368.4199    175.62063 
  449800  0.078210439    4368.2733  0.038342609    4368.4289    175.61966 
  449900  0.075712109    4368.2735  0.035053716     4368.422    175.61992 
  450000   0.06639024    4368.2687  0.036279417    4368.4045    175.62002 
  450100  0.062139056     4368.274  0.032306308    4368.3995    175.62027 
  450200  0.070152022    4368.2729  0.033987458     4368.412    175.61986 
  450300  0.074577716    4368.2663  0.035207725    4368.4133    175.62086 
  450400  0.081896627    4368.2707  0.044609201     4368.438    175.62007 
  450500  0.082029235    4368.2721  0.048415349    4368.4434    175.62008 
  450600    0.0790962    4368.2718  0.033699295    4368.4241     175.6219 
  450700  0.086795537    4368.2644  0.038319386    4368.4328    175.61947 
  450800  0.065337839    4368.2694  0.042071063    4368.4094    175.62029 
  450900  0.075914877    4368.2705  0.040070897    4368.4243    175.62043 
  451000  0.077563703    4368.2715  0.041222058     4368.429    175.62013 
  451100  0.081170575    4368.2657  0.031888354    4368.4192     175.6212 
  451200  0.072536261    4368.2664  0.040273542    4368.4154    175.62117 
  451300  0.074368781    4368.2658  0.045683074    4368.4229    175.61965 
  451400   0.09158008    4368.2702   0.04797389    4368.4554    175.61889 
  451500  0.073633632    4368.2703  0.040683473    4368.4214    175.62042 
  451600  0.075508024    4368.2713  0.029417871    4368.4139    175.62068 
  451700  0.073749521    4368.2667  0.034440244    4368.4117    175.62034 
  451800  0.075419111    4368.2686  0.029497343    4368.4111    175.62041 
  451900   0.07419456    4368.2671   0.03364238    4368.4119    175.62058 
  452000  0.075202556    4368.2687  0.043671563    4368.4251    175.61962 
  452100  0.079318353    4368.2656  0.026996552    4368.4115    175.62053 
  452200   0.06699193    4368.2657  0.030918688    4368.3971    175.62074 
  452300  0.062126402    4368.2594  0.034064924    4368.3866    175.61988 
  452400  0.065175114     4368.263  0.031590692    4368.3923    175.62068 
  452500  0.069765567     4368.271  0.030502694    4368.4061    175.62123 
  452600    0.0712055     4368.262  0.032915863    4368.4016     175.6205 
  452700  0.073234409    4368.2714  0.042985548    4368.4242    175.62114 
  452800  0.077562818    4368.2732  0.042763653    4368.4322    175.62038 
  452900  0.076524626    4368.2716  0.042795838    4368.4291    175.61969 
  453000  0.066502088    4368.2733  0.041726057    4368.4147    175.61983 
  453100  0.066676496      4368.27  0.031218624    4368.4012    175.62068 
  453200  0.068254701    4368.2672  0.037216887    4368.4067    175.62146 
  453300  0.080893442    4368.2696  0.035340819    4368.4262     175.6209 
  453400  0.074004095    4368.2705  0.045482085    4368.4269    175.62001 
  453500  0.074443259    4368.2696  0.030153002    4368.4114    175.62029 
  453600  0.068099569    4368.2689  0.035504997    4368.4064    175.62028 
  453700  0.063488923    4368.2569  0.038096754    4368.3901    175.62065 
  453800  0.059094215    4368.2706  0.041114861    4368.4002    175.61952 
  453900  0.067785435    4368.2664  0.033072173     4368.401    175.62173 
  454000  0.083572412    4368.2735  0.028036674    4368.4268    175.62028 
  454100   0.07821647     4368.267  0.030498989    4368.4147    175.62114 
  454200  0.068834153    4368.2616  0.037298296    4368.4021    175.61993 
  454300  0.071257777    4368.2738  0.043511161    4368.4241    175.61982 
  454400   0.06889438     4368.268  0.042702828     4368.414     175.6198 
  454500  0.072259255     4368.274  0.043708386     4368.426    175.62105 
  454600  0.055434546    4368.2697  0.047875675    4368.4007    175.62016 
  454700   0.07347539    4368.2741  0.040976919    4368.4252    175.61986 
  454800  0.072119781    4368.2674   0.04223976    4368.4177    175.62072 
  454900  0.074257831    4368.2693  0.039226444    4368.4198    175.61974 
  455000  0.076559526    4368.2701  0.031155635    4368.4161    175.62066 
  455100  0.078257116    4368.2734  0.042138836    4368.4329    175.62011 
  455200   0.07405661    4368.2668  0.040926686    4368.4187    175.62061 
  455300  0.069975091    4368.2668  0.036575657    4368.4082    175.62135 
  455400  0.073041146    4368.2583  0.037591098    4368.4053    175.62063 
  455500  0.070118108    4368.2706  0.042248306     4368.418    175.62095 
  455600  0.072398949    4368.2674  0.036463513    4368.4123    175.62073 
  455700  0.071650217     4368.264  0.039659612     4368.411    175.62087 
  455800  0.074347786    4368.2655    0.0361595    4368.4131    175.62123 
  455900   0.06252082    4368.2709  0.042050442    4368.4067     175.6201 
  456000  0.083769566    4368.2676    0.0301229    4368.4232    175.62065 
  456100  0.065847601    4368.2699   0.03742772     4368.406    175.62056 
  456200  0.076358957    4368.2705  0.037478728    4368.4224    175.61985 
  456300  0.081692812     4368.265  0.033165252    4368.4206    175.62086 
  456400   0.08925693    4368.2627  0.038392239    4368.4349    175.62212 
  456500  0.088205318    4368.2688  0.037388466    4368.4384    175.62027 
  456600  0.072966484    4368.2642  0.039528043    4368.4131    175.62067 
  456700  0.071035846    4368.2663  0.035681356    4368.4084    175.62102 
  456800   0.07248739    4368.2689  0.048128328    4368.4257    175.62114 
  456900  0.085788027    4368.2696  0.038946946    4368.4371    175.62146 
  457000  0.085189008    4368.2642  0.045522013    4368.4374    175.62044 
  457100  0.080716668    4368.2623   0.04727696    4368.4305    175.61991 
  457200  0.080356055    4368.2669   0.04171483     4368.429    175.61992 
  457300  0.070009985    4368.2664  0.045074847    4368.4164     175.6212 
  457400  0.068341574    4368.2715  0.040401993    4368.4143    175.62133 
  457500   0.07630503    4368.2655   0.03426405    4368.4141    175.61981 
  457600   0.07609494    4368.2607  0.044510925    4368.4193     175.6204 
  457700  0.067700463    4368.2687  0.040999104    4368.4111    175.62018 
  457800   0.07408384      4368.26  0.040922575    4368.4119    175.62083 
  457900   0.06696954    4368.2656  0.045232416    4368.4112    175.62143 
  458000  0.072781828    4368.2605  0.035303408    4368.4049    175.62177 
  458100  0.074096462    4368.2633  0.031766489    4368.4061    175.62097 
  458200  0.082167374    4368.2586  0.034670699    4368.4164    175.62055 
  458300  0.071008307    4368.2606  0.038046384    4368.4051    175.62073 
  458400  0.068706136    4368.2637  0.029801337    4368.3964    175.62111 
  458500  0.074363272    4368.2619  0.032814178    4368.4062    175.62121 
  458600  0.075003567     4368.264  0.036483463    4368.4129    175.62004 
  458700  0.070646061    4368.2661  0.035881153    4368.4079    175.62129 
  458800  0.078101095    4368.2626  0.038888009    4368.4185    175.62077 
  458900  0.084478084    4368.2575  0.041075485    4368.4252    175.62003 
  459000  0.071970198     4368.267    0.0431601     4368.418    175.62056 
  459100  0.084043246     4368.257  0.036023831     4368.419    175.62271 
  459200  0.082054535    4368.2655  0.038594479    4368.4271    175.62139 
  459300  0.082550508    4368.2668  0.046510929     4368.437    175.62004 
  459400  0.077162928    4368.2616  0.035139074    4368.4124    175.62087 
  459500  0.069798793     4368.265  0.040147554    4368.4098    175.62077 
  459600  0.073900926     4368.265  0.044695828    4368.4204    175.61957 
  459700  0.076690566    4368.2609  0.034284103    4368.4101     175.6215 
  459800  0.072361646    4368.2584  0.027463468    4368.3943     175.6212 
  459900  0.078212812    4368.2624  0.036897864    4368.4165    175.62051 
  460000  0.075536645    4368.2665  0.036841713    4368.4166    175.62137 
  460100  0.065388317    4368.2592  0.043084729    4368.4003    175.62096 
  460200  0.078922901     4368.265  0.036548779    4368.4199    175.61992 
  460300  0.067463265    4368.2623  0.039758268    4368.4032    175.62053 
  460400  0.072098693    4368.2709  0.038045217    4368.4171    175.62073 
  460500  0.063255365    4368.2627  0.036177034    4368.3937     175.6209 
  460600  0.067084526    4368.2657  0.042065599    4368.4084    175.62113 
  460700  0.089579768    4368.2644  0.037483384    4368.4361    175.62134 
  460800  0.082962001    4368.2648  0.044970858    4368.4341    175.62037 
  460900  0.073060055    4368.2683  0.034494902    4368.4123    175.62104 
  461000  0.067683109    4368.2668  0.034718168     4368.403    175.61994 
  461100  0.065112457     4368.268  0.038266403    4368.4039    175.62054 
  461200  0.071155309    4368.2634  0.033801579    4368.4038    175.62093 
  461300  0.066188028    4368.2675  0.041757327    4368.4084    175.62071 
  461400  0.070453124    4368.2724  0.032330875    4368.4103    175.62048 
  461500  0.073228329    4368.2613  0.029686609    4368.4008    175.61969 
  461600  0.074699763    4368.2637  0.039137895    4368.4148     175.6212 
  461700  0.076073619    4368.2559  0.035030645     4368.405    175.62148 
  461800  0.069968061    4368.2683  0.036742727    4368.4099    175.62116 
  461900  0.069152029    4368.2633  0.039052194     4368.406    175.62072 
  462000   0.07833969    4368.2638  0.045813586    4368.4271    175.61993 
  462100  0.082706393    4368.2665  0.037014462    4368.4275    175.62053 
  462200  0.065089462    4368.2683   0.03541174    4368.4013    175.62146 
  462300  0.063193712    4368.2659  0.030835196    4368.3914    175.62039 
  462400  0.074849955    4368.2671  0.038606953    4368.4179    175.62014 
  462500  0.077403029    4368.2681  0.033872158     4368.418    175.62028 
  462600   0.07666483    4368.2635  0.033427899    4368.4119    175.62075 
  462700  0.079036394    4368.2706   0.03972764    4368.4288    175.61968 
  462800   0.08394545    4368.2603  0.032102845    4368.4182    175.62092 
  462900  0.070647589    4368.2623  0.040023376    4368.4082    175.62022 
  463000  0.078486722    4368.2685  0.034156215    4368.4203    175.62138 
  463100   0.07453757    4368.2691  0.042735888    4368.4236    175.62147 
  463200  0.071753594    4368.2694   0.03899551     4368.416    175.62045 
  463300  0.069536445    4368.2751  0.036023412    4368.4153    175.62053 
  463400  0.075272515    4368.2704  0.032034433    4368.4153    175.62053 
  463500  0.076385616    4368.2676   0.03299644    4368.4151    175.62176 
  463600  0.080795686    4368.2667  0.043634542    4368.4315    175.62002 
  463700  0.076373777    4368.2646  0.033857793    4368.4129    175.62025 
  463800  0.086924794    4368.2644  0.032771506    4368.4274    175.62009 
  463900  0.072847915    4368.2651  0.042238216    4368.4166    175.62094 
  464000  0.078689297    4368.2693  0.036905609    4368.4242    175.62005 
  464100  0.076251372    4368.2702  0.035542948      4368.42    175.62114 
  464200  0.068790963    4368.2612  0.043797835    4368.4081    175.62125 
  464300  0.073336294    4368.2681  0.031883763    4368.4099    175.62046 
  464400   0.07939466    4368.2675  0.035099971    4368.4216    175.62086 
  464500  0.066744356    4368.2692  0.043460686    4368.4127    175.62003 
  464600  0.072670236    4368.2668  0.031381726    4368.4071    175.62074 
  464700  0.079846582    4368.2678  0.032174706    4368.4196     175.6211 
  464800  0.072136134    4368.2641  0.044570673    4368.4168    175.62128 
  464900   0.06944304     4368.271   0.03569436    4368.4108    175.62072 
  465000  0.070720029    4368.2631  0.031814954    4368.4009    175.62136 
  465100  0.084721948    4368.2686  0.026757763    4368.4223    175.62165 
  465200  0.074198922    4368.2678  0.038986027     4368.418     175.6204 
  465300  0.084142641    4368.2593  0.038290179    4368.4237    175.62044 
  465400  0.076053866    4368.2647  0.039610766    4368.4183    175.62004 
  465500  0.071249418    4368.2643  0.037927609     4368.409    175.62097 
  465600  0.079014692    4368.2673  0.037805217    4368.4235    175.62079 
  465700  0.078673852    4368.2686  0.039877528    4368.4264     175.6205 
  465800  0.085654211      4368.27  0.033338021    4368.4317    175.62155 
  465900  0.091873144    4368.2618  0.039734212    4368.4392    175.62077 
  466000   0.07744154     4368.267  0.044660327    4368.4277    175.62104 
  466100   0.08139718    4368.2657  0.037572278    4368.4253     175.6216 
  466200   0.07887215    4368.2669  0.034432435    4368.4196    175.62032 
  466300  0.068975921    4368.2722  0.035940784    4368.4116    175.61971 
  466400  0.067264285    4368.2631   0.03910531     4368.403    175.62157 
  466500  0.065873587    4368.2634  0.034257839    4368.3964    175.62069 
  466600  0.067830668    4368.2697  0.033741252    4368.4051    175.62121 
  466700  0.078215025    4368.2729  0.038304589    4368.4285     175.6194 
  466800  0.083963857    4368.2652  0.035294523    4368.4263    175.62086 
  466900  0.076525662    4368.2659  0.043130922    4368.4237    175.62043 
  467000  0.071387575    4368.2657  0.043595526    4368.4163    175.62054 
  467100  0.083972518    4368.2743  0.034637123    4368.4348    175.62104 
  467200   0.08388887    4368.2736  0.050480624    4368.4498    175.62114 
  467300  0.086074439    4368.2696  0.042839441    4368.4414    175.62046 
  467400  0.089956481    4368.2701  0.048730733    4368.4537    175.62046 
  467500  0.084778741     4368.272  0.043182713    4368.4422    175.62066 
  467600  0.088199878    4368.2746  0.042056483    4368.4489    175.62082 
  467700  0.079753197    4368.2683  0.033721248    4368.4215    175.62018 
  467800  0.077037531     4368.272  0.050660964    4368.4381    175.61952 
  467900  0.078904737    4368.2716  0.034919795    4368.4247    175.62066 
  468000  0.068027895    4368.2634  0.040235957    4368.4056    175.61974 
  468100  0.078554159    4368.2759  0.043880202    4368.4375    175.62107 
  468200   0.07829417     4368.268  0.033999445    4368.4194    175.62017 
  468300  0.084928196    4368.2682   0.03587603    4368.4313       175.62 
  468400  0.080357563     4368.266  0.032314112    4368.4187     175.6206 
  468500  0.081204267    4368.2649  0.035607531    4368.4222    175.62011 
  468600  0.070748365     4368.262  0.035782106    4368.4039    175.62041 
  468700  0.073856809    4368.2611  0.029716861    4368.4016    175.62123 
  468800  0.083173977     4368.263  0.033674186    4368.4213     175.6205 
  468900  0.083500563    4368.2606  0.032579512    4368.4184    175.62132 
  469000  0.087498048     4368.262  0.038515132    4368.4317     175.6206 
  469100  0.071045206    4368.2645  0.040917566    4368.4119    175.62022 
  469200  0.069418662    4368.2667  0.045147119    4368.4159    175.62099 
  469300  0.079912477    4368.2684  0.045515151    4368.4337    175.62027 
  469400  0.068584709    4368.2598  0.052467572    4368.4151    175.62137 
  469500  0.067077228     4368.269   0.05374364    4368.4232    175.61959 
  469600  0.070715456    4368.2688  0.044290078    4368.4191    175.62099 
  469700  0.063389787    4368.2663  0.042853268    4368.4041    175.61954 
  469800  0.071112673    4368.2661  0.034980561    4368.4076     175.6205 
  469900  0.076568188    4368.2686  0.042630277     4368.426    175.62017 
  470000    0.0783068    4368.2683  0.038183882    4368.4239    175.62022 
  470100  0.071975119    4368.2685  0.050043649    4368.4264    175.62013 
  470200  0.079359385    4368.2676  0.042797613    4368.4294    175.62073 
  470300   0.08061216    4368.2727  0.035726087    4368.4293    175.61982 
  470400  0.073687071    4368.2653  0.032958411    4368.4087    175.62113 
  470500  0.079518087    4368.2696  0.030408931    4368.4192    175.62019 
  470600  0.077107218    4368.2704  0.033734692    4368.4197    175.61996 
  470700  0.076281747    4368.2686  0.029368825    4368.4123    175.62036 
  470800  0.071561721    4368.2675  0.035847562    4368.4106    175.62038 
  470900   0.07645795    4368.2672  0.043921274    4368.4257    175.61975 
  471000  0.073592779    4368.2672  0.043017913    4368.4206     175.6203 
  471100  0.081854331    4368.2735  0.026923867    4368.4231    175.62149 
  471200  0.080881368    4368.2673  0.042282995    4368.4308    175.61989 
  471300  0.075504231    4368.2712  0.051428709    4368.4358    175.61996 
  471400  0.079756387    4368.2665  0.038971084     4368.425     175.6208 
  471500  0.072483653    4368.2695    0.0515369    4368.4296    175.61969 
  471600  0.074162782    4368.2679  0.046692167    4368.4257    175.62041 
  471700  0.067842677    4368.2663  0.050926324    4368.4189    175.61964 
  471800  0.068824536    4368.2696  0.040368754    4368.4131    175.62042 
  471900  0.065850964    4368.2702   0.04367088    4368.4125    175.61938 
  472000   0.06632345    4368.2666  0.038192774    4368.4042    175.61969 
  472100  0.073037471    4368.2754  0.034417656    4368.4193    175.62053 
  472200   0.07947161    4368.2673  0.037723419    4368.4242    175.62111 
  472300  0.080736665    4368.2646  0.042211912    4368.4278    175.62138 
  472400  0.078862729    4368.2631  0.037658918    4368.4189     175.6206 
  472500  0.068922761    4368.2692  0.051891555    4368.4244     175.6209 
  472600  0.073328109    4368.2682  0.037792994    4368.4159     175.6204 
  472700  0.072757522    4368.2666  0.036688664    4368.4123    175.62022 
  472800  0.071236054    4368.2571  0.033792582    4368.3977    175.62024 
  472900  0.074709927    4368.2676  0.030864335    4368.4105    175.62056 
  473000  0.066341507    4368.2671  0.047141213    4368.4137    175.62133 
  473100  0.068140709    4368.2605  0.034119541    4368.3968    175.62058 
  473200  0.081934738    4368.2647  0.039349993    4368.4269    175.62091 
  473300  0.080012716    4368.2623  0.046055426    4368.4283    175.62116 
  473400  0.081639832    4368.2701  0.047893011    4368.4403    175.61957 
  473500  0.084574816    4368.2606   0.04473139     4368.432    175.62133 
  473600  0.076123098    4368.2694  0.046849236    4368.4304    175.62137 
  473700  0.073399303    4368.2643  0.044120439    4368.4185    175.62044 
  473800  0.083371728    4368.2709  0.041563289    4368.4374    175.62057 
  473900  0.081992165    4368.2636  0.046950133    4368.4334    175.62027 
  474000  0.079932146    4368.2651  0.035769578    4368.4207    175.62131 
  474100  0.078928781    4368.2617  0.043566695    4368.4235    175.62046 
  474200  0.073847518    4368.2658  0.035518788     4368.412    175.62081 
  474300  0.071937247    4368.2648  0.038946524    4368.4116    175.62033 
  474400  0.054830313     4368.264  0.038075859    4368.3843    175.62054 
  474500  0.063786154    4368.2689  0.042515764     4368.407    175.62138 
  474600   0.06204497    4368.2631  0.034059351    4368.3901    175.62062 
  474700  0.074832756    4368.2646  0.031902924    4368.4086    175.62081 
  474800  0.079497988    4368.2617  0.040553012    4368.4214    175.62075 
  474900   0.07703112    4368.2662  0.044973675    4368.4266    175.62085 
  475000  0.078943164    4368.2708   0.04681539     4368.436    175.62019 
  475100  0.090781307    4368.2647  0.049827866    4368.4506    175.62013 
  475200  0.074114479     4368.273  0.045041211    4368.4291    175.62018 
  475300  0.083865033    4368.2639  0.037118884    4368.4267    175.61995 
  475400  0.068736635    4368.2666   0.03479364    4368.4044    175.62069 
  475500  0.071291157    4368.2605  0.036285705    4368.4036    175.62071 
  475600  0.069671995    4368.2637  0.032209913    4368.4003    175.62057 
  475700  0.074762567    4368.2566  0.032418892    4368.4011    175.62022 
  475800  0.074189052    4368.2692  0.040903816    4368.4213    175.61997 
  475900  0.080580673    4368.2597  0.041139263    4368.4216    175.62153 
  476000  0.078388589    4368.2703  0.038782783    4368.4265    175.62122 
  476100  0.073505219    4368.2611  0.038682329      4368.41    175.62002 
  476200  0.074721301    4368.2711   0.03533584    4368.4185     175.6209 
  476300  0.073397699    4368.2659  0.038263218    4368.4142     175.6203 
  476400  0.070427676    4368.2729  0.031801894    4368.4103    175.62095 
  476500  0.070413455    4368.2682  0.040353718    4368.4141     175.6207 
  476600  0.072137748    4368.2666  0.040702295    4368.4154    175.62104 
  476700   0.07286057    4368.2665  0.043503794    4368.4192     175.6205 
  476800  0.074244134    4368.2638  0.043456483    4368.4185    175.62142 
  476900  0.077144759    4368.2643  0.031380107    4368.4113    175.62099 
  477000   0.07836573    4368.2632  0.036859124    4368.4175    175.62118 
  477100  0.077501182    4368.2618  0.029882079    4368.4078    175.62085 
  477200  0.076140993    4368.2583  0.036157947    4368.4086    175.62037 
  477300  0.075834567    4368.2678  0.039207631    4368.4207    175.61977 
  477400  0.081756554    4368.2666  0.035175544    4368.4243    175.62066 
  477500  0.069804363    4368.2592  0.032903103    4368.3967    175.62092 
  477600  0.078078971    4368.2682  0.030502813    4368.4157    175.62083 
  477700  0.086719473     4368.265  0.037418527    4368.4324    175.62013 
  477800  0.080507691    4368.2636  0.045786797    4368.4301     175.6206 
  477900  0.080456943    4368.2687   0.03505299    4368.4244    175.61982 
  478000  0.072025408    4368.2649  0.040300574    4368.4132    175.61994 
  478100  0.067984491    4368.2636  0.045013195    4368.4105    175.61996 
  478200  0.076597551    4368.2658  0.048508894    4368.4292    175.61973 
  478300  0.078706128    4368.2659  0.050253815    4368.4341    175.62017 
  478400  0.087916488    4368.2608  0.038524925    4368.4311    175.62067 
  478500  0.071525477    4368.2645  0.042157373    4368.4139    175.62054 
  478600  0.072200643    4368.2711  0.040479133    4368.4198    175.62039 
  478700  0.078995298    4368.2622  0.043042844    4368.4237    175.62095 
  478800  0.075964231    4368.2731  0.044822983    4368.4318    175.61999 
  478900  0.076742486    4368.2665  0.032379261    4368.4139    175.62021 
  479000  0.077882517    4368.2718  0.034876089    4368.4234     175.6209 
  479100  0.073008588    4368.2616   0.02910088    4368.4001    175.62024 
  479200  0.074380676    4368.2691  0.027229782    4368.4078    175.62066 
  479300  0.075290025    4368.2699  0.034153967    4368.4169    175.62127 
  479400  0.074474626    4368.2642  0.035585751    4368.4114     175.6207 
  479500  0.084130724    4368.2708  0.040537056    4368.4374    175.62037 
  479600  0.075814713     4368.263  0.036256204    4368.4129    175.62073 
  479700  0.080689676    4368.2681  0.032705677    4368.4218     175.6208 
  479800  0.075649692     4368.265  0.039746525    4368.4181    175.62045 
  479900  0.076660764    4368.2654  0.033941062    4368.4143    175.62123 
  480000   0.07254083     4368.263   0.03220281    4368.4039    175.62114 
  480100  0.076870769     4368.259  0.035022733    4368.4093    175.62145 
  480200  0.072014467     4368.262  0.034275604    4368.4042    175.62106 
  480300  0.073054176    4368.2604  0.039388446    4368.4092     175.6208 
  480400  0.068185942    4368.2577  0.046750629    4368.4066    175.62011 
  480500  0.076997704    4368.2683  0.045173539    4368.4289    175.62158 
  480600  0.078118052    4368.2617  0.046170189    4368.4249    175.62155 
  480700  0.077059775    4368.2651   0.03819612    4368.4188    175.62123 
  480800  0.064200887    4368.2634  0.043204004    4368.4029    175.62136 
  480900  0.076816714    4368.2659  0.028726982    4368.4097     175.6211 
  481000   0.07183634    4368.2618  0.038902445    4368.4084     175.6206 
  481100  0.073298108    4368.2632  0.038954048     4368.412    175.62126 
  481200   0.06893783    4368.2642  0.034683271    4368.4022    175.62091 
  481300  0.078898547    4368.2651   0.03524606    4368.4186     175.6215 
  481400  0.075152539    4368.2645  0.032026087    4368.4091     175.6206 
  481500  0.074385643    4368.2599  0.042992595    4368.4144    175.62027 
  481600  0.079758726    4368.2631  0.039038108    4368.4216    175.62067 
  481700  0.078442036    4368.2682  0.038808601    4368.4246    175.62014 
  481800  0.076388316    4368.2661   0.02786615    4368.4085    175.62032 
  481900  0.073792551     4368.255  0.038374774    4368.4039     175.6211 
  482000  0.066713626    4368.2674  0.038198576    4368.4056    175.62021 
  482100  0.079599756    4368.2599  0.029237373    4368.4085    175.62046 
  482200  0.072140202    4368.2611  0.034868774    4368.4041    175.62131 
  482300  0.072682593    4368.2678  0.038505846    4368.4153    175.62121 
  482400  0.074719833    4368.2612  0.038351539    4368.4115    175.62079 
  482500  0.073615858    4368.2643  0.040700703    4368.4153    175.62036 
  482600  0.079097543    4368.2612  0.031645949    4368.4114    175.62129 
  482700  0.077199266    4368.2584   0.04220617    4368.4164    175.62082 
  482800  0.081987608    4368.2621  0.035766718    4368.4208     175.6207 
  482900  0.072364027    4368.2672  0.046047456    4368.4217     175.6206 
  483000  0.068134773    4368.2648  0.045622711    4368.4125    175.62008 
  483100  0.080061241    4368.2686  0.028920423    4368.4175    175.62099 
  483200  0.067421712    4368.2689  0.036174804    4368.4061    175.62094 
  483300  0.071951697    4368.2615  0.032656848     4368.402    175.62073 
  483400  0.072340111    4368.2672  0.030749097    4368.4064    175.62059 
  483500  0.069354004    4368.2609   0.03229689    4368.3971    175.62143 
  483600  0.069450609    4368.2665  0.038666942    4368.4093    175.62042 
  483700  0.071599221    4368.2624   0.03986796    4368.4096    175.62133 
  483800  0.085541018    4368.2594  0.037406386     4368.425    175.62015 
  483900  0.090458383    4368.2594  0.037732123    4368.4327    175.62118 
  484000   0.09081664    4368.2669  0.040123711    4368.4432    175.62096 
  484100  0.086986812    4368.2554  0.052596113    4368.4384    175.62079 
  484200   0.07701379     4368.271  0.036224822    4368.4226    175.62191 
  484300  0.086278118    4368.2662  0.040757575    4368.4363    175.62106 
  484400  0.078480577    4368.2625  0.048001274    4368.4282    175.62128 
  484500   0.07864569    4368.2682   0.03269652    4368.4188    175.62083 
  484600  0.081766492    4368.2638  0.042664506     4368.429    175.61999 
  484700  0.079893967    4368.2681  0.040488367    4368.4283    175.62146 
  484800  0.078513739    4368.2645  0.037669697    4368.4198     175.6205 
  484900  0.076592718    4368.2677  0.032097524    4368.4146    175.62128 
  485000  0.070858042    4368.2671  0.037879347    4368.4111    175.62091 
  485100    0.0780545    4368.2703   0.03278282      4368.42    175.61995 
  485200  0.078419827    4368.2682  0.029524549    4368.4152    175.62065 
  485300  0.073653536    4368.2588  0.036919575    4368.4061    175.62008 
  485400  0.070554687    4368.2685  0.035264168    4368.4096    175.62031 
  485500  0.066346647    4368.2606  0.041235957    4368.4013    175.62018 
  485600   0.08102785    4368.2688  0.034026082    4368.4243    175.62061 
  485700  0.073211318    4368.2684  0.031769722    4368.4099    175.62152 
  485800   0.06679141      4368.27  0.036204318    4368.4063    175.62059 
  485900   0.06744362     4368.265  0.037081069    4368.4032    175.61992 
  486000  0.072956396    4368.2707  0.037786598    4368.4178    175.62099 
  486100  0.073846546     4368.267  0.037541136    4368.4153    175.62007 
  486200  0.068540236    4368.2636  0.047070842    4368.4134    175.61897 
  486300  0.066492647    4368.2719  0.034678109    4368.4062    175.62084 
  486400  0.067077633    4368.2713  0.039720724    4368.4116    175.62131 
  486500  0.069130166    4368.2682  0.035524546    4368.4074    175.62108 
  486600   0.06419978    4368.2617  0.038078083     4368.396    175.62063 
  486700  0.070353906    4368.2711  0.042649296    4368.4192    175.61974 
  486800  0.070247732    4368.2686  0.046593829    4368.4205    175.62019 
  486900  0.073167147    4368.2729  0.036169846    4368.4188     175.6205 
  487000  0.074138156    4368.2697  0.037040098    4368.4179    175.61951 
  487100  0.069929397    4368.2723  0.043144894    4368.4202    175.61987 
  487200  0.065047205    4368.2645  0.037220528    4368.3992    175.61951 
  487300  0.081496824    4368.2686  0.035092778    4368.4259     175.6208 
  487400  0.091589251    4368.2675  0.041902823    4368.4467    175.62092 
  487500  0.085042469    4368.2705  0.041548062    4368.4395    175.62021 
  487600  0.081162603    4368.2691  0.041713419    4368.4325    175.62003 
  487700  0.082946263    4368.2709  0.033453076    4368.4287    175.62095 
  487800   0.07978688    4368.2701  0.030805961    4368.4205    175.62049 
  487900  0.078914625    4368.2701  0.038568638     4368.427    175.62087 
  488000  0.075130519    4368.2594  0.037264715    4368.4093     175.6202 
  488100  0.080025197    4368.2735  0.036187042    4368.4296    175.62086 
  488200  0.074594547    4368.2686  0.037335988    4368.4177    175.62138 
  488300  0.066698933    4368.2682  0.039247022    4368.4074    175.62018 
  488400  0.073736538    4368.2671  0.044699696    4368.4223    175.62095 
  488500  0.079964471    4368.2718  0.040054585    4368.4317    175.62006 
  488600  0.075262593    4368.2657  0.036102593    4368.4146    175.62002 
  488700  0.080446163     4368.269  0.041786805    4368.4314    175.61955 
  488800  0.069396482    4368.2705   0.04491345    4368.4195    175.62074 
  488900  0.072186031    4368.2745   0.04066068    4368.4234    175.61974 
  489000  0.081960264    4368.2635  0.037404359    4368.4238    175.62075 
  489100  0.078329284    4368.2732  0.037351776     4368.428    175.62008 
  489200  0.080291627    4368.2734  0.040422296    4368.4341     175.6196 
  489300  0.076214615    4368.2675  0.046228781     4368.428    175.62009 
  489400  0.070860133    4368.2672  0.041975032    4368.4154    175.62039 
  489500  0.071863621    4368.2676  0.035626098     4368.411    175.62046 
  489600   0.06852528    4368.2683  0.032102879    4368.4031    175.62031 
  489700  0.075486086    4368.2651  0.038091373    4368.4164    175.62006 
  489800  0.066096696    4368.2687  0.036263164    4368.4041    175.62003 
  489900  0.080093864    4368.2717  0.029090998    4368.4209    175.62065 
  490000  0.084684975    4368.2736  0.033001523    4368.4335    175.62042 
  490100  0.079722422    4368.2677  0.037621595    4368.4248    175.62025 
  490200  0.072967246    4368.2687  0.031274242    4368.4094    175.62098 
  490300  0.065425652    4368.2676   0.03170824    4368.3974    175.62112 
  490400  0.084650616    4368.2631  0.036058308     4368.426    175.62025 
  490500  0.079708428    4368.2673  0.031727771    4368.4185      175.621 
  490600  0.071553719    4368.2683   0.03271127    4368.4083    175.62079 
  490700  0.073421119    4368.2677   0.04175215    4368.4195    175.62091 
  490800  0.072091817    4368.2698  0.037463643    4368.4153    175.62104 
  490900  0.072425066    4368.2633   0.03684414    4368.4087    175.62106 
  491000  0.073635054    4368.2669   0.03980168    4368.4171    175.62059 
  491100   0.07641093    4368.2679   0.03532621    4368.4177    175.62098 
  491200  0.074982129    4368.2663  0.038662529    4368.4173    175.62076 
  491300  0.079442673     4368.272  0.036069156    4368.4272    175.62052 
  491400  0.081261722    4368.2706  0.039141813    4368.4315    175.62145 
  491500  0.075300954    4368.2713  0.035874712    4368.4201    175.61996 
  491600  0.077279681    4368.2678  0.036228737    4368.4198    175.61995 
  491700  0.071800895     4368.274  0.033845633    4368.4155    175.62053 
  491800  0.068718655      4368.27   0.03708911      4368.41    175.62063 
  491900  0.081229292    4368.2664   0.03836933    4368.4265    175.62091 
  492000  0.084610095    4368.2684  0.035529896    4368.4307    175.62082 
  492100  0.075691604    4368.2743  0.046559382    4368.4344    175.61977 
  492200  0.077521794    4368.2695  0.052104646    4368.4378    175.62064 
  492300  0.074661262    4368.2704  0.042243713    4368.4246    175.62004 
  492400  0.075536487    4368.2763   0.03261727    4368.4222    175.62074 
  492500  0.065441454    4368.2749  0.043376673    4368.4163    175.61953 
  492600  0.070268181    4368.2711  0.034014912    4368.4105    175.61966 
  492700  0.078668089    4368.2657  0.032264413    4368.4159    175.62048 
  492800  0.077116048     4368.258  0.032272548    4368.4059    175.62089 
  492900  0.069625562    4368.2687   0.03148399    4368.4046    175.62039 
  493000  0.069085587    4368.2672  0.036911732    4368.4076    175.61962 
  493100   0.08615743    4368.2693   0.03966316    4368.4381    175.62152 
  493200  0.083560587    4368.2719   0.04099608    4368.4381     175.6211 
  493300  0.074678393    4368.2673   0.03895307    4368.4182    175.62118 
  493400  0.075561878    4368.2704   0.03830518     4368.422    175.62023 
  493500  0.084830614    4368.2652  0.039100227    4368.4315    175.62115 
  493600  0.079263988    4368.2723  0.041657321    4368.4328    175.62081 
  493700  0.077811001    4368.2667  0.045655855     4368.429    175.62061 
  493800  0.085347862    4368.2674   0.02955758    4368.4249    175.62126 
  493900  0.072148055    4368.2714  0.038718307    4368.4183     175.6203 
  494000  0.074850917    4368.2688  0.032504293    4368.4135    175.61999 
  494100  0.063778039    4368.2704  0.031831799    4368.3978    175.62109 
  494200  0.073565233    4368.2696  0.034981388    4368.4149    175.62002 
  494300  0.072669985    4368.2633  0.028022233    4368.4002    175.62164 
  494400  0.075345729    4368.2674  0.035475925    4368.4158    175.62135 
  494500  0.078451985    4368.2644  0.028164274    4368.4101    175.62134 
  494600  0.064924593    4368.2691  0.032051533    4368.3984    175.62052 
  494700   0.06772826    4368.2676  0.027911808     4368.397    175.62052 
  494800  0.067874638    4368.2633  0.033273438    4368.3983    175.62047 
  494900  0.080096194    4368.2689  0.029422959    4368.4184    175.62102 
  495000  0.064118261    4368.2641  0.044446285    4368.4046    175.61933 
  495100  0.072823999    4368.2635   0.03443054    4368.4071    175.62025 
  495200  0.077623133    4368.2677  0.035263352    4368.4193    175.62091 
  495300  0.067686365    4368.2711  0.044380835    4368.4169    175.61999 
  495400  0.073923111    4368.2721  0.035231724    4368.4181    175.61983 
  495500  0.064061022     4368.272  0.030376222    4368.3984    175.62083 
  495600  0.079674417     4368.263  0.041327086    4368.4237    175.62119 
  495700  0.081309702    4368.2685  0.036154341    4368.4266    175.61998 
  495800  0.078698744    4368.2719  0.038509788    4368.4283    175.62093 
  495900  0.078559246    4368.2667  0.034956129    4368.4194    175.62063 
  496000   0.08149184    4368.2735  0.044012277    4368.4397    175.62019 
  496100   0.07256647    4368.2668  0.045074258    4368.4207    175.62015 
  496200  0.074234624    4368.2711  0.051252674    4368.4336    175.61933 
  496300  0.070042509    4368.2684  0.047493826    4368.4209    175.62047 
  496400  0.079705348    4368.2693  0.034092989    4368.4228    175.62088 
  496500  0.084597551    4368.2684  0.038187021    4368.4334    175.62026 
  496600  0.074469521    4368.2657    0.0353101    4368.4126    175.62013 
  496700  0.080660862    4368.2691  0.030075351    4368.4201    175.62081 
  496800  0.073085439    4368.2672  0.035656491    4368.4124     175.6203 
  496900  0.074631463    4368.2726  0.041412088    4368.4259    175.62088 
  497000  0.079105596      4368.27  0.036983025    4368.4255    175.62035 
  497100  0.075147877    4368.2683  0.033159445    4368.4141    175.62175 
  497200  0.067956704    4368.2693  0.033482353    4368.4047     175.6208 
  497300  0.070370856    4368.2653  0.033640439    4368.4045     175.6202 
  497400  0.071396671     4368.271  0.046632196    4368.4247    175.62021 
  497500  0.066629083    4368.2652  0.038464164    4368.4035    175.62041 
  497600  0.069446325    4368.2736  0.040133763    4368.4178    175.62145 
  497700  0.087953337    4368.2667  0.031016212    4368.4296    175.62057 
  497800  0.082132457    4368.2715  0.027023104    4368.4216    175.62162 
  497900  0.069340651    4368.2684  0.039309952    4368.4117    175.62072 
  498000  0.075003149    4368.2663  0.041628006    4368.4204    175.62123 
  498100   0.07107159    4368.2739  0.031847607    4368.4122    175.61976 
  498200  0.070955068    4368.2644  0.045147224    4368.4159    175.62036 
  498300  0.086291914    4368.2697  0.034175225    4368.4332    175.61969 
  498400  0.075424779    4368.2675  0.037746909    4368.4183    175.62031 
  498500  0.067487387    4368.2656  0.038628269    4368.4054    175.62085 
  498600  0.075219849    4368.2644  0.033415773    4368.4106    175.62065 
  498700  0.077177527    4368.2747   0.04514672    4368.4355    175.62022 
  498800   0.07573315     4368.273  0.037655852    4368.4242    175.61918 
  498900  0.084385545    4368.2756  0.036278304    4368.4383    175.62041 
  499000  0.089208274    4368.2672   0.03930501    4368.4402    175.62047 
  499100  0.073099892     4368.273  0.046793799    4368.4294    175.62022 
  499200  0.062687975     4368.269  0.031956075    4368.3949    175.62042 
  499300  0.067828077    4368.2706  0.034321875    4368.4065    175.61973 
  499400  0.070904624    4368.2674    0.0537707    4368.4275    175.62108 
  499500  0.088066539    4368.2609   0.04016627    4368.4331    175.62163 
  499600  0.086700077    4368.2683  0.036833546     4368.435    175.62086 
  499700  0.083513683    4368.2571  0.031276422    4368.4135    175.61995 
  499800  0.068883612    4368.2705  0.049462922    4368.4232    175.62006 
  499900  0.072806171    4368.2675  0.040249508    4368.4169       175.62 
  500000  0.068120389    4368.2696  0.048516057    4368.4203    175.61968 
  500100  0.073129341    4368.2703  0.041963195    4368.4218    175.61949 
  500200  0.076908338    4368.2714  0.037708879    4368.4244    175.62096 
  500300  0.084076115    4368.2666  0.040794216    4368.4334    175.62025 
  500400  0.092806725    4368.2637  0.047364976    4368.4502    175.62091 
  500500  0.089538066    4368.2662  0.039972663    4368.4404    175.62071 
  500600  0.083713054    4368.2668  0.039812078    4368.4321    175.62054 
  500700  0.076720598    4368.2649  0.042737042    4368.4226    175.62069 
  500800  0.072021827    4368.2726  0.040959281    4368.4215    175.62035 
  500900  0.065994538    4368.2711  0.045081688    4368.4151    175.62011 
  501000  0.076123295    4368.2704  0.047617783    4368.4321    175.61995 
  501100  0.083836921    4368.2727  0.036577676     4368.435    175.62127 
  501200  0.083832372     4368.273  0.044510055    4368.4432    175.62073 
  501300  0.073663795    4368.2671  0.038185691    4368.4157    175.62058 
  501400  0.077866864    4368.2731  0.036662404    4368.4265    175.62108 
  501500  0.076336291    4368.2705  0.033032039     4368.418     175.6209 
  501600   0.07319801    4368.2713  0.042637249    4368.4237    175.61993 
  501700  0.072275429    4368.2707  0.043221078    4368.4223    175.62011 
  501800   0.07208044    4368.2583  0.039965479    4368.4063    175.62056 
  501900  0.076932512    4368.2687  0.041087799    4368.4251     175.6205 
  502000  0.084604695    4368.2722  0.038521406    4368.4375       175.62 
  502100  0.082558273    4368.2641  0.036466894    4368.4243    175.62034 
  502200  0.074230146    4368.2626  0.042120572     4368.416    175.62015 
  502300  0.078688621    4368.2732  0.035148335    4368.4263    175.62073 
  502400  0.085088064    4368.2682  0.028810955    4368.4245    175.62033 
  502500  0.074011718    4368.2688  0.038947949    4368.4187    175.61979 
  502600  0.076659481    4368.2645  0.034485622    4368.4139     175.6202 
  502700  0.070332806    4368.2716   0.04113485    4368.4181    175.62021 
  502800  0.062960335    4368.2712  0.039587446    4368.4052    175.61949 
  502900  0.074553465    4368.2704  0.041857895     4368.424     175.6204 
  503000  0.084356136     4368.271  0.035169701    4368.4326    175.61976 
  503100  0.077211219    4368.2663  0.034592631    4368.4166    175.62056 
  503200  0.069845387    4368.2756  0.041431666    4368.4217    175.62042 
  503300  0.066547338     4368.268  0.039895086    4368.4076    175.62046 
  503400  0.066133638    4368.2733  0.045316709    4368.4178    175.61925 
  503500  0.077483278    4368.2653  0.047233251    4368.4286    175.62038 
  503600  0.077604957    4368.2686  0.044584387    4368.4295    175.62008 
  503700  0.075825967     4368.269  0.041207169    4368.4239    175.62055 
  503800  0.071364626    4368.2629  0.036233677    4368.4061     175.6211 
  503900  0.065203494    4368.2725  0.039649607    4368.4099    175.62067 
  504000  0.069610226    4368.2659  0.031771273     4368.402    175.61986 
  504100  0.075051464    4368.2639  0.033037781    4368.4094    175.62124 
  504200   0.07751059    4368.2715  0.042098427    4368.4298    175.62133 
  504300  0.088947109    4368.2711  0.039812885    4368.4443     175.6206 
  504400  0.068049374    4368.2718  0.046412001    4368.4202    175.62033 
  504500  0.076142091    4368.2685  0.034998864    4368.4176    175.62083 
  504600  0.064142443    4368.2665  0.038728253    4368.4014    175.62012 
  504700  0.070697515    4368.2712  0.041587788    4368.4188    175.62177 
  504800  0.076337813    4368.2663   0.03373866    4368.4144    175.62079 
  504900  0.083203881    4368.2696  0.032143198    4368.4265    175.62109 
  505000   0.07869557    4368.2716  0.053196602    4368.4428    175.61965 
  505100  0.081637115    4368.2717  0.043881359     4368.438     175.6211 
  505200   0.08131999    4368.2661   0.03973293    4368.4277    175.61976 
  505300  0.071408962    4368.2698  0.043761149    4368.4206    175.62084 
  505400  0.083459026    4368.2703  0.037436373    4368.4329    175.62059 
  505500   0.08024549    4368.2725  0.041136915    4368.4339      175.621 
  505600  0.075523395    4368.2685  0.027552006    4368.4093    175.62082 
  505700  0.077803531    4368.2651   0.03627487     4368.418    175.62094 
  505800  0.075516095    4368.2623  0.042035345    4368.4175    175.62034 
  505900  0.072935694    4368.2658  0.043695078    4368.4188    175.62063 
  506000  0.081898448    4368.2673  0.032635482    4368.4227     175.6203 
  506100  0.080262454    4368.2713  0.033594705    4368.4252    175.62121 
  506200  0.073116238    4368.2681   0.03871234    4368.4165    175.62129 
  506300  0.073453648    4368.2653  0.035446105    4368.4108    175.61999 
  506400  0.088497312     4368.273  0.041212475    4368.4468    175.62072 
  506500  0.078130363    4368.2682   0.04062278    4368.4259    175.62022 
  506600  0.081597244    4368.2688  0.035769665    4368.4269     175.6209 
  506700  0.077531142    4368.2699  0.040177568    4368.4263     175.6208 
  506800  0.071983696    4368.2695   0.04403736    4368.4214    175.62068 
  506900  0.070786284    4368.2679  0.055188752    4368.4292    175.61952 
  507000  0.081721731    4368.2675   0.04222784    4368.4322    175.62118 
  507100  0.071608797    4368.2687  0.038722549    4368.4147    175.62038 
  507200  0.079508397    4368.2636  0.029056784    4368.4118    175.62092 
  507300  0.081215551    4368.2712  0.041733559    4368.4347    175.62084 
  507400  0.077774503    4368.2646  0.038806967      4368.42    175.62061 
  507500  0.069188242    4368.2692    0.0427097    4368.4156    175.61953 
  507600  0.075657917    4368.2648  0.041399041    4368.4196    175.62039 
  507700  0.090556522    4368.2609  0.030157875    4368.4268    175.62113 
  507800  0.086042963    4368.2682  0.032061887    4368.4292    175.62006 
  507900  0.080400318    4368.2639  0.030511512    4368.4149    175.62097 
  508000  0.074183863    4368.2683  0.030649618    4368.4101    175.62052 
  508100  0.067921361     4368.264  0.028531383    4368.3943    175.61997 
  508200  0.071633109    4368.2636  0.037809224    4368.4088    175.61997 
  508300  0.069397733    4368.2684  0.040267998    4368.4127    175.62022 
  508400  0.071328849    4368.2677  0.037326216     4368.412    175.62103 
  508500  0.080962771    4368.2627  0.041453461    4368.4255    175.62087 
  508600  0.084504437    4368.2679  0.041455542     4368.436    175.62088 
  508700  0.081396801    4368.2625  0.031137184    4368.4157    175.62047 
  508800  0.072826216    4368.2698  0.041491543    4368.4204    175.61941 
  508900  0.067920894    4368.2625  0.031396946    4368.3957    175.62052 
  509000  0.081203944    4368.2727  0.035932207    4368.4304    175.62116 
  509100  0.073652604    4368.2611  0.056755912    4368.4282    175.61954 
  509200  0.076796793    4368.2616  0.032079526    4368.4088    175.61989 
  509300  0.072990994    4368.2576  0.036521334    4368.4035     175.6214 
  509400   0.07619002    4368.2662   0.04367065     4368.424    175.61952 
  509500  0.074273446    4368.2601  0.046394658    4368.4178    175.62142 
  509600  0.083780218    4368.2698  0.029356661    4368.4248    175.62101 
  509700  0.075984025    4368.2631  0.047710116    4368.4247    175.61977 
  509800  0.078371936    4368.2689  0.044897606    4368.4312    175.62035 
  509900  0.077822149    4368.2715  0.035319932    4368.4234    175.62039 
  510000  0.072723017    4368.2695  0.039469921     4368.418    175.62005 
  510100  0.082120279    4368.2664  0.042429742    4368.4319    175.61975 
  510200  0.067921976    4368.2684  0.038591164    4368.4087    175.61983 
  510300  0.081720262    4368.2707  0.038665272    4368.4319    175.62083 
  510400  0.080585363    4368.2667  0.046156019    4368.4336    175.62063 
  510500  0.082784568    4368.2688  0.045799003    4368.4386     175.6211 
  510600  0.091539338    4368.2661    0.0419534    4368.4452    175.61979 
  510700  0.079946947     4368.263  0.051101104    4368.4339    175.62099 
  510800  0.066972174    4368.2663  0.052445834    4368.4191    175.62001 
  510900   0.07146236    4368.2628  0.042726042    4368.4127    175.62009 
  511000  0.073874662     4368.269  0.033898933    4368.4136    175.62095 
  511100  0.072386362    4368.2673  0.039492873    4368.4153    175.61983 
  511200  0.079201556    4368.2692  0.036098671     4368.424    175.61942 
  511300  0.068644921     4368.271  0.033173122    4368.4071    175.62044 
  511400  0.072593605    4368.2667  0.034279388    4368.4098    175.61997 
  511500   0.06652996    4368.2663      0.04475    4368.4108     175.6191 
  511600  0.072680793    4368.2659  0.033009052    4368.4078    175.61961 
  511700  0.069394053    4368.2651  0.038647749    4368.4077    175.62042 
  511800  0.079841408    4368.2667  0.045784437    4368.4322    175.62074 
  511900  0.071308627    4368.2674  0.038295293    4368.4125    175.62008 
  512000  0.074065543    4368.2653   0.03842511    4368.4148    175.62157 
  512100  0.070111385    4368.2712  0.039606262    4368.4159     175.6202 
  512200  0.085399857    4368.2657  0.045370717    4368.4391    175.62016 
  512300  0.080655952    4368.2678  0.039010568    4368.4277    175.62093 
  512400  0.080299592    4368.2699  0.039066457    4368.4294    175.62105 
  512500   0.07202377    4368.2666  0.034795376    4368.4093    175.62059 
  512600  0.069577742    4368.2641  0.041098614    4368.4095    175.61977 
  512700  0.086309771    4368.2645  0.040470006    4368.4344    175.62119 
  512800  0.090888225    4368.2622  0.044539374     4368.443    175.62096 
  512900  0.076736707    4368.2659   0.04178835    4368.4227    175.62079 
  513000  0.079367913    4368.2629  0.040066301    4368.4219    175.62118 
  513100  0.084668013    4368.2699  0.036451818    4368.4332    175.62111 
  513200  0.076860956     4368.273  0.043278782    4368.4315    175.61962 
  513300  0.082891761     4368.272  0.032593505    4368.4289    175.62053 
  513400  0.077661985    4368.2652  0.043517155    4368.4251    175.62055 
  513500  0.087045405    4368.2655  0.042884361    4368.4388    175.62098 
  513600  0.081258044    4368.2654   0.04155672    4368.4287    175.62163 
  513700  0.081048132    4368.2653  0.037737964    4368.4245    175.61983 
  513800  0.079581336    4368.2648  0.042005276    4368.4261    175.62169 
  513900  0.083407565    4368.2641  0.030501341    4368.4196    175.62095 
  514000    0.0809619    4368.2686  0.042882095    4368.4329    175.62026 
  514100   0.06637956    4368.2665  0.040004156     4368.406    175.61991 
  514200  0.075910286    4368.2658  0.034979685    4368.4145    175.62029 
  514300  0.073293019    4368.2632  0.044545013    4368.4176    175.62045 
  514400  0.074530694    4368.2695  0.041989474    4368.4232    175.62145 
  514500  0.063929149    4368.2628  0.037228946    4368.3959    175.62003 
  514600  0.077404772    4368.2683  0.034294476    4368.4186    175.62054 
  514700  0.085894986    4368.2661  0.037270721    4368.4321    175.62087 
  514800  0.083177331     4368.266  0.039736467    4368.4304    175.62092 
  514900  0.079662342    4368.2687  0.029466381    4368.4175    175.62182 
  515000  0.085293246    4368.2634  0.029544422    4368.4208    175.62174 
  515100  0.080779566    4368.2584   0.03964832    4368.4192    175.62059 
  515200  0.070482253    4368.2612  0.031953868    4368.3988    175.62126 
  515300   0.08464167    4368.2672  0.038711523    4368.4328    175.62078 
  515400  0.084642981    4368.2651  0.034131319    4368.4261     175.6203 
  515500  0.080674417    4368.2671  0.042749348    4368.4308    175.62055 
  515600  0.071629699    4368.2656   0.04185512    4368.4148    175.62152 
  515700  0.068951571    4368.2663  0.038568516    4368.4082    175.62021 
  515800  0.076223099    4368.2663  0.037250862    4368.4178    175.62044 
  515900  0.078406113    4368.2711  0.041980791    4368.4306    175.62014 
  516000  0.082416555    4368.2565   0.03310898    4368.4132    175.62123 
  516100  0.067663991    4368.2652   0.03418023    4368.4008    175.62013 
  516200  0.070929181    4368.2614  0.035321028    4368.4031    175.61992 
  516300  0.078085329    4368.2718  0.031562982    4368.4204    175.62036 
  516400   0.07308222    4368.2719  0.034481436    4368.4159    175.62035 
  516500  0.073561937    4368.2686  0.039180095     4368.418    175.62044 
  516600  0.076368339    4368.2648  0.039900613    4368.4192    175.62045 
  516700  0.086813577    4368.2668  0.042045118     4368.439    175.62086 
  516800   0.06974912    4368.2669  0.036538355     4368.408    175.62044 
  516900  0.076053769    4368.2717  0.036142768    4368.4219    175.62081 
  517000  0.077398605    4368.2655   0.04544159    4368.4269    175.61964 
  517100  0.086969256    4368.2653  0.040113572    4368.4357    175.62052 
  517200  0.087886529    4368.2676  0.040732573    4368.4401    175.62106 
  517300  0.092209533    4368.2645   0.04746508    4368.4502    175.62002 
  517400   0.07454251    4368.2733  0.036838548    4368.4218    175.62128 
  517500  0.075834388    4368.2734   0.03900605    4368.4261    175.62047 
  517600  0.080025673    4368.2649  0.039056844    4368.4239     175.6201 
  517700  0.080808068    4368.2741  0.037057896    4368.4323    175.62092 
  517800  0.072412078    4368.2671  0.045007934    4368.4207    175.62064 
  517900  0.079904562    4368.2658  0.042634206    4368.4282    175.62204 
  518000  0.081300939    4368.2671   0.04636491    4368.4353    175.62028 
  518100  0.086246362      4368.27  0.033320249    4368.4325    175.62024 
  518200  0.075491938    4368.2696  0.040178119    4368.4229    175.62086 
  518300  0.063533434    4368.2616  0.031086368    4368.3879    175.62101 
  518400  0.071276461    4368.2682  0.032768607    4368.4078    175.62036 
  518500  0.083198228    4368.2689  0.041903718    4368.4355    175.62122 
  518600  0.077855361    4368.2698  0.042678143    4368.4292    175.62119 
  518700  0.076664299    4368.2666  0.042335685    4368.4239    175.62028 
  518800  0.076695868    4368.2665  0.033436285    4368.4149    175.62015 
  518900  0.073892285     4368.264  0.037157937    4368.4119    175.62076 
  519000  0.070897719    4368.2723  0.026253381    4368.4049    175.62102 
  519100  0.053307284     4368.268  0.033612746    4368.3816    175.61984 
  519200  0.062959859     4368.267   0.02610246    4368.3875    175.61998 
  519300   0.05786748    4368.2727  0.035296218    4368.3948    175.62006 
  519400  0.074589277    4368.2646  0.036245602    4368.4127    175.62022 
  519500   0.06874456    4368.2659  0.038876613    4368.4078    175.61969 
  519600  0.069873586    4368.2666  0.030681988     4368.402     175.6203 
  519700  0.068226189    4368.2701  0.036746364    4368.4091    175.62036 
  519800  0.077392617    4368.2732  0.025753587     4368.415    175.62086 
  519900  0.071272721    4368.2751  0.037917185    4368.4198    175.61985 
  520000   0.07319598    4368.2765  0.030720909     4368.417    175.62123 
  520100  0.076113927    4368.2608  0.038533572    4368.4134    175.62083 
  520200   0.07196907    4368.2726  0.030148569    4368.4106    175.62096 
  520300  0.077891821      4368.27  0.038886351    4368.4257    175.61984 
  520400  0.065909556    4368.2667  0.045923971    4368.4114    175.62068 
  520500  0.071466017    4368.2716  0.045762843    4368.4244    175.61962 
  520600  0.072787682    4368.2734  0.039204776    4368.4217    175.62101 
  520700  0.083650521    4368.2703  0.040201754    4368.4359    175.62033 
  520800  0.083108266    4368.2698  0.038187792    4368.4325    175.62128 
  520900  0.081228525    4368.2607  0.041752456    4368.4242    175.62023 
  521000  0.087386584    4368.2646  0.032001547    4368.4276    175.62025 
  521100  0.071418076     4368.271   0.03779145    4368.4158    175.61949 
  521200  0.073079216    4368.2684  0.043940905    4368.4219     175.6199 
  521300  0.071923633    4368.2671  0.042096928     4368.417     175.6206 
  521400  0.077009183    4368.2672  0.036890583    4368.4196    175.62143 
  521500  0.078270513    4368.2687  0.037678167    4368.4237    175.62016 
  521600  0.072818921    4368.2721  0.034871564    4368.4161     175.6212 
  521700  0.071472801     4368.264  0.035271279    4368.4064    175.62035 
  521800  0.077062692    4368.2651  0.037079735    4368.4177    175.62029 
  521900   0.07314732    4368.2651  0.041397391    4368.4162    175.62092 
  522000  0.088816271     4368.266  0.042525208    4368.4417    175.62037 
  522100  0.069302336    4368.2658  0.048721846    4368.4184    175.61985 
  522200  0.078014933    4368.2669  0.026067946    4368.4099     175.6202 
  522300  0.077027488    4368.2698  0.038506689    4368.4238    175.62049 
  522400  0.083484644    4368.2706  0.035158783    4368.4309    175.62072 
  522500  0.074707047    4368.2691  0.040916009     4368.422    175.61973 
  522600  0.074996729    4368.2709   0.03673373      4368.42    175.62041 
  522700  0.079389779     4368.267  0.032592444    4368.4186    175.62081 
  522800    0.0808301    4368.2719  0.041058537    4368.4341    175.62071 
  522900   0.08390346    4368.2675  0.039090073    4368.4324    175.62062 
  523000  0.085084038    4368.2741   0.02767103    4368.4293    175.61998 
  523100  0.088619743    4368.2635   0.03566354     4368.432    175.62036 
  523200   0.07413541    4368.2647  0.027756028    4368.4036    175.62071 
  523300  0.081556647    4368.2635  0.037251096     4368.423    175.62154 
  523400  0.077165109     4368.271  0.034253997    4368.4209    175.61968 
  523500   0.07452398    4368.2678  0.038799009    4368.4183    175.62108 
  523600  0.067107093    4368.2642  0.037384068    4368.4022    175.62002 
  523700  0.069233827    4368.2709  0.028639883    4368.4033    175.61994 
  523800  0.066310505     4368.262   0.03433746    4368.3957    175.62169 
  523900  0.067785643    4368.2672  0.040257887     4368.409    175.62039 
  524000  0.065402042    4368.2686  0.042241011    4368.4088    175.61978 
  524100   0.06544499    4368.2656  0.043504852    4368.4072    175.62068 
  524200  0.065840919    4368.2674  0.043902769    4368.4099    175.62024 
  524300  0.077239521    4368.2612  0.037089636     4368.414    175.62071 
  524400  0.068858722    4368.2693  0.046404265    4368.4189    175.62059 
  524500  0.068485798    4368.2748  0.029761654    4368.4072     175.6204 
  524600  0.070467683    4368.2685  0.033897372    4368.4081    175.62081 
  524700  0.078084449    4368.2623  0.032121654    4368.4115    175.62099 
  524800  0.062581549    4368.2578  0.043910969    4368.3955    175.61961 
  524900  0.075558844    4368.2713  0.031835229    4368.4164    175.62092 
  525000  0.066224213    4368.2696  0.057409988    4368.4263       175.62 
  525100  0.078047446    4368.2677  0.049496703    4368.4342    175.61979 
  525200  0.085889577     4368.258  0.043345839    4368.4301    175.61973 
  525300   0.08771336    4368.2698  0.039246869    4368.4406    175.62006 
  525400  0.079779031    4368.2672  0.043783045    4368.4306    175.61982 
  525500  0.075806538    4368.2676  0.045387066    4368.4266    175.61934 
  525600  0.072822373    4368.2697  0.039276223    4368.4182    175.61985 
  525700  0.076054018    4368.2667  0.033810398    4368.4145    175.62071 
  525800  0.077442268    4368.2685  0.041559298    4368.4262    175.62114 
  525900  0.064658145    4368.2696  0.039161792    4368.4057     175.6207 
  526000  0.075935058    4368.2627  0.027557507     4368.404    175.62118 
  526100  0.067745264    4368.2741  0.037269717    4368.4129    175.62072 
  526200  0.062517979    4368.2698  0.037297084    4368.4008    175.62037 
  526300  0.072777527    4368.2745  0.035493529    4368.4191    175.62003 
  526400   0.06969703    4368.2721  0.035120049    4368.4117    175.62017 
  526500   0.08031421    4368.2713  0.028867407    4368.4206     175.6214 
  526600  0.076623075    4368.2659  0.041258373     4368.422    175.62009 
  526700  0.077738418    4368.2702  0.036718045    4368.4234    175.62124 
  526800  0.078434563    4368.2678   0.04517123    4368.4305    175.62056 
  526900  0.069964327    4368.2666  0.032527793     4368.404    175.62144 
  527000  0.073047862    4368.2649  0.042852267    4368.4173    175.62106 
  527100  0.075915042    4368.2695  0.040562042    4368.4238    175.62065 
  527200  0.073005932    4368.2687  0.033879783     4368.412    175.62053 
  527300  0.065491112    4368.2691  0.036933036    4368.4042    175.62081 
  527400  0.071414421    4368.2664   0.03212285    4368.4056    175.62039 
  527500  0.064426209    4368.2632  0.031977112    4368.3918    175.62069 
  527600  0.072679345     4368.266   0.02866079    4368.4036    175.62121 
  527700  0.072489108    4368.2657  0.034830456    4368.4092     175.6211 
  527800  0.076311301    4368.2615  0.030777235    4368.4066       175.62 
  527900   0.08567593    4368.2656  0.035213827    4368.4292    175.62003 
  528000   0.07614557    4368.2692  0.034257122    4368.4176    175.62048 
  528100  0.079353155     4368.269  0.029751715    4368.4176    175.62085 
  528200  0.074892103    4368.2696  0.030826313    4368.4127    175.62061 
  528300  0.067827895    4368.2636  0.045026481    4368.4103     175.6196 
  528400  0.072948026     4368.263  0.047237235    4368.4196    175.62021 
  528500  0.072379589    4368.2647  0.040284285    4368.4135    175.61902 
  528600  0.075425697    4368.2664  0.035371137    4368.4148    175.62048 
  528700  0.067907518    4368.2649  0.027591159    4368.3942    175.62001 
  528800  0.073048823    4368.2656  0.029368495    4368.4045    175.62034 
  528900  0.072356183    4368.2647  0.031208161    4368.4044    175.62122 
  529000  0.077009575    4368.2685  0.030991017    4368.4149    175.62066 
  529100  0.073430991    4368.2616  0.039018889    4368.4106    175.62067 
  529200  0.076101914    4368.2645  0.034786946    4368.4134    175.62041 
  529300  0.073623513    4368.2634  0.047329428    4368.4211    175.62031 
  529400  0.085973033    4368.2701  0.040794723    4368.4398    175.62125 
  529500  0.070764613    4368.2679  0.049246864    4368.4232    175.62048 
  529600  0.077236144    4368.2657  0.039140126    4368.4206    175.62087 
  529700  0.077599657    4368.2628  0.027771652    4368.4069    175.62111 
  529800  0.074938152    4368.2631  0.030663079    4368.4061    175.62148 
  529900   0.08169106    4368.2614  0.037794457    4368.4216    175.62077 
  530000  0.068605457    4368.2625  0.037734351     4368.403    175.62043 
  530100  0.073943223    4368.2589  0.031765393    4368.4015    175.62074 
  530200  0.070879174    4368.2652  0.038523714      4368.41    175.62017 
  530300  0.077843549    4368.2656  0.028881237    4368.4111    175.62114 
  530400  0.073407107    4368.2653  0.034617003    4368.4099    175.61983 
  530500  0.068750827    4368.2647  0.036712532    4368.4045     175.6203 
  530600  0.066513017    4368.2651  0.029698405    4368.3945    175.62129 
  530700  0.065879334     4368.267  0.029205676    4368.3949    175.62108 
  530800  0.066511123    4368.2683  0.028471981    4368.3965    175.62097 
  530900  0.069452309    4368.2652  0.042056096    4368.4114    175.62122 
  531000  0.076791703    4368.2664  0.036109211    4368.4176    175.62101 
  531100  0.086399576    4368.2689  0.036975923    4368.4354    175.62074 
  531200  0.076373135    4368.2699  0.043434625    4368.4278    175.62088 
  531300  0.067799012    4368.2688  0.046362238    4368.4167    175.62048 
  531400  0.074247632    4368.2642  0.030465761    4368.4059    175.62232 
  531500  0.081505643    4368.2663  0.032441556    4368.4209     175.6216 
  531600  0.080140206    4368.2593  0.038993754    4368.4184    175.61997 
  531700   0.07140217    4368.2658   0.04056352    4368.4134     175.6209 
  531800  0.076984403    4368.2685  0.041818303    4368.4257    175.61923 
  531900  0.080067475    4368.2721  0.028810535     4368.421    175.62039 
  532000  0.074496358    4368.2727   0.02885082    4368.4132    175.62099 
  532100  0.077552948    4368.2679  0.035297723    4368.4195    175.61952 
  532200  0.073606086    4368.2747  0.032248601    4368.4173    175.62025 
  532300  0.075193332    4368.2672  0.032151165    4368.4121     175.6198 
  532400  0.079040491    4368.2641  0.037244787    4368.4198    175.62028 
  532500  0.069521714    4368.2601  0.038032488    4368.4023    175.62037 
  532600  0.072107152      4368.26  0.034510162    4368.4026    175.61999 
  532700  0.088395388    4368.2646  0.038436294    4368.4356     175.6215 
  532800  0.072577921    4368.2656  0.047197939    4368.4216    175.61951 
  532900  0.068248435    4368.2669   0.03583194     4368.405     175.6202 
  533000  0.071563809     4368.265  0.038430752    4368.4107    175.62029 
  533100  0.074847956    4368.2633  0.039779959    4368.4152    175.62124 
  533200  0.065479483     4368.263  0.047522587    4368.4087    175.62063 
  533300  0.069221583    4368.2666  0.040906264    4368.4113    175.62011 
  533400    0.0698198     4368.265  0.032826325    4368.4024    175.62079 
  533500  0.071961475    4368.2586  0.035992494    4368.4025    175.62096 
  533600  0.075635591     4368.268  0.042123565    4368.4235    175.62046 
  533700  0.086971305    4368.2687   0.04607522    4368.4451    175.62081 
  533800  0.077772267    4368.2594  0.046523689    4368.4225    175.62067 
  533900  0.065341058    4368.2734  0.040469386    4368.4118    175.62045 
  534000  0.066403963    4368.2643  0.033952454    4368.3978    175.62026 
  534100  0.072418071    4368.2729  0.043590835     4368.425    175.61968 
  534200   0.06738914    4368.2628  0.037191632     4368.401    175.62137 
  534300   0.06686519     4368.266  0.038472055    4368.4047    175.62013 
  534400  0.074708596    4368.2719  0.028435443    4368.4123    175.62091 
  534500  0.076495218    4368.2671  0.037208285    4368.4189    175.62148 
  534600  0.072115431    4368.2703  0.040001173    4368.4184    175.62031 
  534700  0.066396536    4368.2664  0.030078251     4368.396       175.62 
  534800  0.070340002    4368.2667  0.026247193    4368.3984    175.62059 
  534900  0.078743644    4368.2709  0.032441473    4368.4214    175.62062 
  535000  0.063393432    4368.2701  0.032905844     4368.398    175.62066 
  535100  0.075821355    4368.2704  0.035624676    4368.4197    175.62042 
  535200  0.074553236    4368.2764  0.041341892    4368.4295     175.6201 
  535300  0.081936772    4368.2738  0.038285165    4368.4349    175.62058 
  535400  0.071555889    4368.2742  0.037339131    4368.4188     175.6205 
  535500  0.075557095    4368.2726  0.041592138    4368.4274    175.61947 
  535600  0.082200359    4368.2708  0.039763753    4368.4338    175.61992 
  535700   0.06703526    4368.2644  0.043519902    4368.4084    175.61965 
  535800  0.071788048    4368.2712  0.037212377     4368.416    175.62001 
  535900  0.070092567    4368.2632  0.038161776    4368.4065     175.6197 
  536000  0.076187316    4368.2662  0.038813709    4368.4192    175.62051 
  536100   0.07625747    4368.2727  0.035273696    4368.4222    175.62183 
  536200   0.06712779     4368.272  0.036901306    4368.4095    175.62071 
  536300  0.077064108     4368.274  0.035292471    4368.4248    175.62091 
  536400  0.079425706    4368.2697  0.031424974    4368.4201    175.62087 
  536500  0.071507036    4368.2646  0.041389844    4368.4132    175.62103 
  536600  0.070801466    4368.2667  0.030352657    4368.4032    175.62061 
  536700  0.074390497    4368.2666  0.039863115     4368.418    175.61987 
  536800    0.0728972    4368.2708  0.038115397    4368.4182    175.62033 
  536900  0.070207523    4368.2734  0.034987315    4368.4136    175.62055 
  537000   0.07385664    4368.2678  0.041971257    4368.4205    175.62002 
  537100  0.077905017    4368.2697  0.039805073    4368.4262    175.62082 
  537200  0.088935451    4368.2678  0.043017197    4368.4442    175.61992 
  537300  0.078696421    4368.2712  0.050937762    4368.4401     175.6208 
  537400  0.076101123    4368.2747  0.034447271    4368.4233    175.62033 
  537500  0.070581363    4368.2676   0.03529375    4368.4087    175.62112 
  537600  0.074664174    4368.2734  0.036379099    4368.4216    175.62054 
  537700  0.081237193    4368.2634  0.031143158    4368.4163    175.62064 
  537800  0.079509865    4368.2704  0.044274965    4368.4339     175.6203 
  537900   0.07838421    4368.2731  0.034446358    4368.4251    175.61993 
  538000  0.070941026    4368.2615  0.035753242    4368.4035    175.62049 
  538100  0.076551007    4368.2705  0.048209459    4368.4334    175.62073 
  538200  0.075365736    4368.2718  0.041268763     4368.426    175.61981 
  538300  0.088468764    4368.2702  0.030203084     4368.433    175.61984 
  538400  0.085180994    4368.2673  0.046997808     4368.442    175.62015 
  538500   0.08033128    4368.2697  0.038252019    4368.4284    175.62089 
  538600  0.079966837    4368.2745  0.030875848    4368.4252    175.62087 
  538700  0.078020688    4368.2648  0.039118196    4368.4209    175.62088 
  538800  0.071536336     4368.273  0.042009412    4368.4223    175.62025 
  538900  0.066077046    4368.2736   0.02835793     4368.401    175.62085 
  539000  0.069083648    4368.2722  0.040706555    4368.4165    175.62067 
  539100    0.0703398    4368.2683  0.044154299    4368.4179    175.61979 
  539200  0.081612331    4368.2708  0.032626583    4368.4257    175.62044 
  539300  0.079221126     4368.265  0.042308356     4368.426    175.62068 
  539400  0.071656926    4368.2692  0.043670163    4368.4203    175.62053 
  539500  0.075700753    4368.2643  0.034393014    4368.4122    175.62102 
  539600   0.07633891    4368.2696  0.040138854    4368.4242    175.62044 
  539700  0.066028923    4368.2708  0.038508733    4368.4082     175.6195 
  539800  0.069711463    4368.2727    0.0473258    4368.4245    175.62025 
  539900  0.074944588    4368.2658  0.041361547    4368.4195    175.62032 
  540000  0.068318353    4368.2727  0.049054543    4368.4242    175.62008 
  540100  0.064849224     4368.268  0.036914084    4368.4021     175.6201 
  540200   0.05709394    4368.2707  0.031171859    4368.3875    175.62025 
  540300   0.05535593    4368.2651  0.034177155    4368.3823    175.62052 
  540400  0.065917702    4368.2706  0.031784194    4368.4012    175.62099 
  540500    0.0700418    4368.2664  0.036989095    4368.4084     175.6196 
  540600  0.070821326    4368.2711  0.031220365    4368.4085    175.62014 
  540700  0.072243294     4368.267  0.033984249    4368.4093    175.62089 
  540800  0.067597847    4368.2645  0.030237394     4368.396    175.62142 
  540900  0.070579448    4368.2691  0.024422166    4368.3993    175.62071 
  541000  0.073344727     4368.267   0.03103837     4368.408    175.62027 
  541100  0.068625277    4368.2582  0.038589571    4368.3996    175.61991 
  541200  0.070593504    4368.2677  0.031440481    4368.4049    175.62016 
  541300  0.069882366    4368.2707  0.034827515    4368.4103    175.62031 
  541400  0.077722604    4368.2656  0.030261619    4368.4123     175.6207 
  541500  0.073947408    4368.2726  0.044418211    4368.4278    175.62083 
  541600  0.075483019     4368.269  0.039443946    4368.4216    175.61964 
  541700  0.075583399    4368.2674  0.035311563     4368.416    175.62062 
  541800  0.065996272    4368.2692  0.035920245     4368.404    175.61937 
  541900  0.078812566    4368.2671  0.028150248    4368.4133    175.62038 
  542000  0.075153372    4368.2721  0.033790316    4368.4185    175.62093 
  542100  0.081816236    4368.2641  0.032443837    4368.4192    175.62026 
  542200  0.071103267    4368.2675  0.035972444    4368.4101    175.62007 
  542300  0.078634053    4368.2611  0.041322569    4368.4203     175.6207 
  542400  0.077876792    4368.2681  0.044666111    4368.4295    175.62087 
  542500  0.068711727     4368.275  0.039922529     4368.418    175.62055 
  542600   0.07231683    4368.2731  0.027651965    4368.4091    175.62097 
  542700  0.066536562    4368.2711  0.030391589    4368.4012    175.61986 
  542800  0.070634817    4368.2682   0.03496107     4368.409    175.62053 
  542900  0.069838923    4368.2595    0.0338818    4368.3981    175.62061 
  543000  0.072701791    4368.2688  0.032484326    4368.4102    175.62098 
  543100  0.074032324     4368.265  0.037990208    4368.4139    175.62086 
  543200  0.079731834    4368.2679  0.036215563    4368.4236    175.62056 
  543300  0.063602445     4368.267  0.038269879    4368.4006    175.62028 
  543400  0.066095776    4368.2712  0.030766986    4368.4011    175.62091 
  543500  0.073192509    4368.2743  0.030051436    4368.4141    175.62044 
  543600   0.07556006    4368.2617  0.030681968    4368.4056    175.62114 
  543700  0.072271631     4368.268  0.037775074    4368.4141    175.62074 
  543800  0.071665983    4368.2709  0.037544238    4368.4159    175.62122 
  543900  0.084558211    4368.2622  0.036211094    4368.4252    175.62134 
  544000  0.076341391    4368.2658  0.035043634    4368.4153    175.62038 
  544100  0.078107736    4368.2682  0.040834705    4368.4262    175.62131 
  544200  0.079831489    4368.2723  0.044106334    4368.4361     175.6197 
  544300  0.085739864    4368.2662  0.041977122    4368.4367    175.62051 
  544400  0.074922423    4368.2682  0.048489942     4368.429    175.62032 
  544500  0.071747114    4368.2657  0.037222843    4368.4104    175.62159 
  544600  0.072765377    4368.2682  0.040827315    4368.4181    175.62096 
  544700  0.075640806    4368.2709  0.035255463    4368.4196     175.6205 
  544800  0.069190224    4368.2675  0.047689802    4368.4189    175.62067 
  544900    0.0675325    4368.2648  0.042116405    4368.4082    175.62115 
  545000  0.074730672    4368.2717  0.037744306    4368.4215    175.62101 
  545100  0.069518037    4368.2717  0.035479821    4368.4114    175.62004 
  545200  0.074413791    4368.2712  0.041496894    4368.4242    175.62058 
  545300  0.084391947    4368.2695  0.034681015    4368.4307    175.62045 
  545400  0.069775558    4368.2615  0.041186862    4368.4073    175.62157 
  545500  0.079371335    4368.2659  0.027188133    4368.4121    175.62081 
  545600  0.066200941    4368.2613  0.029640339    4368.3902    175.62013 
  545700  0.068169948    4368.2639  0.038656791    4368.4048    175.62069 
  545800  0.071202563    4368.2717  0.030879694    4368.4093    175.62081 
  545900  0.078984684    4368.2673   0.04062369    4368.4263     175.6206 
  546000  0.075026261    4368.2614  0.041146673     4368.415    175.62132 
  546100  0.067291761    4368.2661   0.04277873    4368.4097    175.62004 
  546200  0.078039214    4368.2634  0.043200948    4368.4236    175.62089 
  546300  0.074055426    4368.2638  0.042697551    4368.4175    175.62108 
  546400  0.075052566    4368.2607  0.031559574    4368.4048    175.62126 
  546500  0.055772522    4368.2601  0.036008625    4368.3797    175.61977 
  546600  0.062831382     4368.269  0.029793319     4368.393    175.62045 
  546700  0.057639561    4368.2638  0.034002516    4368.3842    175.62187 
  546800  0.067159602    4368.2685  0.036011358    4368.4051    175.62087 
  546900  0.073579932    4368.2683  0.042531921    4368.4211    175.62043 
  547000  0.081228178    4368.2648  0.044286958    4368.4309    175.62032 
  547100   0.07753915    4368.2571  0.037679678     4368.411    175.62228 
  547200  0.082256463    4368.2687  0.032382255    4368.4244    175.62112 
  547300  0.082578879    4368.2591  0.036505104    4368.4193    175.62023 
  547400  0.074586829    4368.2603  0.029819306    4368.4019    175.62095 
  547500  0.075845047    4368.2688  0.040214071    4368.4227    175.62034 
  547600  0.075543137    4368.2657  0.036636941    4368.4156    175.62153 
  547700  0.077487345     4368.269  0.035777287    4368.4209     175.6208 
  547800  0.067078817    4368.2645  0.031134605    4368.3962    175.62121 
  547900  0.075209986    4368.2664  0.032644267    4368.4118     175.6209 
  548000  0.070120104    4368.2634   0.04221256    4368.4108    175.62006 
  548100  0.075914789     4368.273  0.038307681    4368.4251    175.62158 
  548200  0.083308141    4368.2679  0.043484376    4368.4363    175.62119 
  548300  0.075751395    4368.2664  0.039296697    4368.4193    175.62164 
  548400  0.069996353    4368.2608  0.038234678     4368.404    175.62174 
  548500  0.076976314     4368.257  0.038006631    4368.4104    175.62033 
  548600  0.075497664    4368.2644  0.034514895     4368.412    175.61984 
  548700  0.081612551    4368.2637  0.034300592    4368.4203    175.62064 
  548800  0.069371712    4368.2618  0.039748308    4368.4055    175.62067 
  548900  0.081849706    4368.2643  0.039237834    4368.4262    175.62046 
  549000   0.07516473    4368.2718  0.042295507    4368.4268    175.61983 
  549100  0.081159302    4368.2697  0.040330566    4368.4317    175.62053 
  549200  0.080862347    4368.2642  0.042530511    4368.4279    175.62129 
  549300  0.066380831    4368.2672   0.03788392    4368.4046    175.62101 
  549400  0.066807493    4368.2673  0.041992067    4368.4094     175.6203 
  549500   0.07175377    4368.2658  0.042574528    4368.4159    175.62056 
  549600  0.085438119    4368.2684  0.038050363    4368.4345    175.62108 
  549700  0.074281371    4368.2626  0.032721018    4368.4066    175.62088 
  549800   0.07043982    4368.2693  0.039675444    4368.4146    175.62092 
  549900   0.07045878    4368.2616  0.035347659    4368.4026    175.62051 
  550000  0.071952136    4368.2685   0.03269233     4368.409    175.62004 
  550100  0.074268569    4368.2702  0.038517975    4368.4201    175.62087 
  550200   0.08655475     4368.261  0.033544233    4368.4242    175.62116 
  550300  0.083286981      4368.27   0.03722478     4368.432    175.61996 
  550400  0.060727732    4368.2658   0.03315982      4368.39    175.62017 
  550500  0.076811916    4368.2753  0.027500217    4368.4179    175.62089 
  550600  0.071954114    4368.2718  0.039961478    4368.4196    175.62011 
  550700   0.07465109    4368.2741  0.037132955    4368.4231    175.62119 
  550800  0.070618231    4368.2682  0.045803525    4368.4199    175.62058 
  550900  0.073235366    4368.2672  0.050838278    4368.4278    175.61953 
  551000  0.077673003    4368.2701   0.03411644    4368.4207    175.62043 
  551100  0.081624772    4368.2652  0.032763929    4368.4203    175.62037 
  551200  0.073167496    4368.2706  0.034834682    4368.4151    175.62084 
  551300  0.079583109    4368.2689  0.035641306    4368.4238    175.62046 
  551400  0.078313648    4368.2691   0.03924381    4368.4258    175.62064 
  551500  0.078254071    4368.2678  0.033218389    4368.4183    175.62126 
  551600  0.083766246     4368.269  0.036576394    4368.4311    175.62094 
  551700  0.077828761    4368.2719  0.041352654    4368.4299    175.62016 
  551800  0.084117305    4368.2689  0.028280012    4368.4233    175.62153 
  551900  0.070635171    4368.2713  0.043894235    4368.4211    175.62001 
  552000  0.079152714    4368.2704  0.036915394     4368.426    175.62012 
  552100  0.067100402    4368.2707    0.0424482    4368.4137     175.6205 
  552200  0.068303898    4368.2725  0.043247646    4368.4181     175.6201 
  552300  0.077175288    4368.2686  0.038087103    4368.4223    175.62126 
  552400  0.072100084    4368.2592  0.038749873    4368.4061    175.62061 
  552500  0.071449555    4368.2679   0.03659924    4368.4116    175.62127 
  552600  0.093524651    4368.2632  0.033985071    4368.4374    175.62043 
  552700  0.088239084     4368.273  0.037908792    4368.4431     175.6213 
  552800  0.081780637    4368.2722  0.040765209    4368.4355    175.62119 
  552900  0.077706219    4368.2729  0.036821535    4368.4262    175.62054 
  553000  0.081585073    4368.2688  0.030816102    4368.4219    175.62064 
  553100  0.074024503    4368.2699  0.037802416    4368.4187    175.62032 
  553200  0.072535318    4368.2698  0.033949245    4368.4125    175.62012 
  553300   0.07517477    4368.2681  0.034950115    4368.4157    175.62056 
  553400    0.0741175    4368.2732  0.039515715    4368.4238    175.62046 
  553500  0.093587552    4368.2677  0.036212432    4368.4441    175.62104 
  553600  0.076613046    4368.2667  0.040087347    4368.4216    175.61993 
  553700  0.071755906    4368.2659  0.036768424    4368.4102    175.62004 
  553800  0.080573779    4368.2718  0.038285755    4368.4309    175.62069 
  553900  0.085380309    4368.2642  0.040636702    4368.4328    175.62011 
  554000  0.069996776    4368.2665  0.040348081    4368.4118    175.62115 
  554100  0.075180137    4368.2674  0.038338989    4368.4184    175.61984 
  554200  0.082787257    4368.2672  0.034651527    4368.4259    175.62049 
  554300  0.070417942    4368.2652   0.03536767    4368.4061    175.62108 
  554400  0.069276187    4368.2719   0.05446551    4368.4302    175.62054 
  554500  0.070497657    4368.2651  0.043743348    4368.4145    175.62075 
  554600  0.079307487    4368.2658  0.037502989    4368.4222    175.62065 
  554700  0.077945976     4368.258  0.049071366    4368.4239    175.61996 
  554800  0.082918767    4368.2701  0.042815519    4368.4372    175.62107 
  554900  0.073973708    4368.2602  0.038492955    4368.4096    175.62098 
  555000  0.075842174    4368.2606  0.038949519    4368.4132    175.62113 
  555100  0.068091504    4368.2664  0.040853645    4368.4093    175.61959 
  555200  0.084689934    4368.2616  0.050328481    4368.4389    175.62077 
  555300  0.084625485    4368.2733  0.044895621    4368.4451    175.62026 
  555400  0.088412183     4368.268   0.03963155    4368.4401    175.62095 
  555500  0.078687075    4368.2633  0.033334637    4368.4146    175.62074 
  555600  0.082418455     4368.271  0.040004939    4368.4345    175.62078 
  555700  0.078019284    4368.2598  0.044262735     4368.421    175.62028 
  555800   0.07390255    4368.2679  0.032537494    4368.4112    175.62045 
  555900  0.060825426    4368.2691  0.046731262     4368.407    175.61996 
  556000  0.077107314    4368.2671  0.033275873     4368.416    175.62028 
  556100   0.08351622    4368.2598  0.036679085    4368.4216    175.62077 
  556200  0.083906085    4368.2698  0.034662799    4368.4302    175.62109 
  556300  0.072523424      4368.26  0.032973482    4368.4017    175.62078 
  556400  0.075510592    4368.2637  0.036903481    4368.4138    175.62093 
  556500   0.07013257    4368.2656  0.047657068    4368.4184    175.62069 
  556600  0.073842587    4368.2599  0.047495255    4368.4181    175.62104 
  556700  0.085622049    4368.2619  0.039822631    4368.4301    175.62089 
  556800  0.072230293     4368.263  0.035910441    4368.4071    175.62092 
  556900   0.06872269    4368.2707   0.03663163    4368.4103     175.6206 
  557000  0.072156954    4368.2693  0.040810609    4368.4183    175.61955 
  557100  0.068347538    4368.2666  0.036439871    4368.4055    175.62046 
  557200  0.073804929    4368.2665   0.03321591    4368.4104     175.6213 
  557300  0.065685243    4368.2628  0.047028875    4368.4082    175.62062 
  557400  0.074287746    4368.2675  0.039304219    4368.4181    175.62033 
  557500   0.07418917    4368.2637  0.045958452    4368.4209    175.62008 
  557600  0.068801567    4368.2629  0.049661396    4368.4157    175.62036 
  557700  0.078977945    4368.2665  0.038623944    4368.4235    175.62129 
  557800  0.083656112    4368.2672  0.031224793    4368.4238    175.62041 
  557900  0.070004604     4368.269  0.035242923    4368.4092       175.62 
  558000  0.074074128    4368.2714  0.030883409    4368.4133    175.62112 
  558100  0.060267139     4368.269  0.040249422    4368.3995     175.6199 
  558200  0.071191347    4368.2714  0.036081918    4368.4142    175.62038 
  558300  0.066924664    4368.2711  0.040538099     4368.412    175.62065 
  558400  0.070975664    4368.2701  0.043924928    4368.4204    175.61985 
  558500  0.069873894    4368.2694  0.042681385    4368.4168    175.62104 
  558600  0.072552845    4368.2713  0.032087315    4368.4121    175.62019 
  558700  0.066005236    4368.2748  0.035476436    4368.4092    175.62028 
  558800  0.071664929    4368.2656  0.029784323    4368.4028    175.62066 
  558900  0.069772701     4368.269  0.034025722    4368.4076    175.62099 
  559000  0.075090504    4368.2688  0.036474891    4368.4178    175.62007 
  559100  0.078115133    4368.2616  0.033661594    4368.4124    175.62143 
  559200  0.077362001    4368.2641  0.042182965    4368.4223    175.61914 
  559300  0.075869966    4368.2714  0.037481574    4368.4226     175.6207 
  559400  0.064403186    4368.2684  0.036399674    4368.4013    175.62048 
  559500  0.072320301    4368.2638  0.035483608    4368.4077    175.62038 
  559600  0.068883221    4368.2683  0.034549146     4368.406     175.6209 
  559700  0.072679774    4368.2581  0.039535683    4368.4066    175.62006 
  559800  0.076459878    4368.2622  0.034403589    4368.4112    175.62088 
  559900  0.074483349     4368.269  0.029421369    4368.4101    175.62178 
  560000  0.075503091    4368.2615  0.042464873    4368.4171      175.621 
  560100  0.075760436    4368.2665  0.042546336    4368.4226     175.6212 
  560200  0.071763629    4368.2736  0.030101076    4368.4113    175.62069 
  560300  0.068236848    4368.2672  0.038490499     4368.408    175.62068 
  560400  0.079516185    4368.2714   0.04216765    4368.4328    175.62021 
  560500  0.070899614    4368.2683  0.040388373     4368.415    175.62049 
  560600  0.074652959    4368.2656  0.042602093    4368.4201    175.62047 
  560700  0.077773257    4368.2628   0.03190362    4368.4113    175.62078 
  560800  0.071209062    4368.2661  0.031192296     4368.404    175.62133 
  560900   0.07759074     4368.267  0.023822417    4368.4071    175.62126 
  561000  0.065879182    4368.2676  0.033713704    4368.4001     175.6208 
  561100  0.070304223    4368.2634  0.040142962    4368.4089    175.62076 
  561200  0.077712832    4368.2682  0.034297203     4368.419    175.62028 
  561300  0.079461318    4368.2678  0.032070568    4368.4189    175.62138 
  561400  0.079170477    4368.2619  0.033037703    4368.4136    175.62077 
  561500  0.078558983    4368.2613  0.035939868     4368.415    175.62083 
  561600  0.077753968    4368.2663  0.035366934    4368.4182    175.62096 
  561700  0.069428998    4368.2646  0.034409125    4368.4031    175.62058 
  561800  0.068228036    4368.2632  0.036758418    4368.4022    175.62152 
  561900   0.08035472     4368.269  0.041036351    4368.4305    175.62051 
  562000  0.071837692    4368.2673  0.045727958    4368.4207    175.62023 
  562100  0.066180888    4368.2632  0.040116964    4368.4026    175.62068 
  562200  0.067674605    4368.2579  0.031285097    4368.3906    175.62064 
  562300   0.06954018    4368.2615  0.030287738     4368.396    175.62121 
  562400   0.07508819    4368.2704  0.035354774    4368.4183    175.62068 
  562500  0.068892568    4368.2651  0.031671183       4368.4     175.6213 
  562600  0.090007377    4368.2485  0.031929075    4368.4154    175.62051 
  562700  0.067655689    4368.2652  0.044744472    4368.4114    175.62072 
  562800  0.078142553    4368.2569  0.039827136    4368.4139    175.62158 
  562900    0.0664663    4368.2577  0.037333867    4368.3946    175.62068 
  563000  0.066980569    4368.2589   0.03477153    4368.3941    175.62081 
  563100  0.068115729    4368.2589  0.037557294    4368.3986    175.62118 
  563200  0.076886585    4368.2622  0.033865595    4368.4113    175.62122 
  563300  0.082292169    4368.2627  0.031571445    4368.4177    175.62169 
  563400  0.075380691    4368.2572  0.038307299    4368.4085    175.62033 
  563500  0.081166193    4368.2673  0.036262098    4368.4252    175.62012 
  563600  0.077785414    4368.2638  0.037619239     4368.418    175.62078 
  563700  0.079060363    4368.2663  0.045915028    4368.4307    175.62065 
  563800  0.072843934    4368.2628  0.037705863    4368.4097    175.62108 
  563900  0.068075329    4368.2624   0.03011918    4368.3945    175.62081 
  564000   0.08208547    4368.2619  0.031386121    4368.4164     175.6213 
  564100  0.086355035    4368.2603   0.03523242     4368.425    175.62078 
  564200  0.081699346    4368.2612  0.047476061    4368.4311    175.62088 
  564300  0.082865149    4368.2594  0.040904552    4368.4245     175.6204 
  564400   0.08440577     4368.265  0.042043142    4368.4336    175.62091 
  564500  0.086448954    4368.2653  0.034845041    4368.4297    175.62164 
  564600  0.088993952    4368.2655  0.040899049    4368.4398    175.62207 
  564700  0.089740384    4368.2624  0.034504489    4368.4314    175.62086 
  564800  0.072135952    4368.2651  0.042738827    4368.4159    175.62091 
  564900  0.076045258    4368.2618   0.03026442    4368.4061      175.621 
  565000  0.069450515    4368.2628  0.038572565    4368.4054    175.61997 
  565100  0.071438652    4368.2628  0.039833519    4368.4097     175.6207 
  565200  0.076695969    4368.2609  0.039020729    4368.4149    175.61933 
  565300   0.07885843    4368.2672  0.037427888    4368.4228     175.6203 
  565400  0.078265476    4368.2691  0.032949024    4368.4194    175.62076 
  565500  0.070786818    4368.2677   0.03092349    4368.4047    175.62093 
  565600  0.064685937    4368.2686   0.03978814    4368.4054    175.62121 
  565700  0.065400542    4368.2686   0.03910761    4368.4057    175.62101 
  565800  0.075423436    4368.2683  0.036488257    4368.4179    175.62055 
  565900  0.072841467    4368.2631  0.043689057    4368.4159    175.62072 
  566000  0.072384745    4368.2655  0.036853782    4368.4109    175.62051 
  566100  0.066695981    4368.2601  0.033424264    4368.3935    175.62057 
  566200  0.076576686    4368.2628  0.036390487    4368.4139    175.62004 
  566300  0.073245094    4368.2632  0.035452729    4368.4084    175.62056 
  566400  0.070488359    4368.2652  0.039011553    4368.4098     175.6201 
  566500   0.07884404    4368.2651  0.029314859    4368.4126    175.62093 
  566600  0.065927376    4368.2625  0.038823657    4368.4002    175.62147 
  566700  0.068982928    4368.2667  0.046132906    4368.4163      175.621 
  566800   0.06440486    4368.2618   0.04063514     4368.399    175.62123 
  566900  0.075101843    4368.2627  0.031886058    4368.4072    175.62048 
  567000  0.080413134    4368.2646  0.032633999    4368.4177    175.62091 
  567100  0.078736407    4368.2656  0.031878997    4368.4155    175.62079 
  567200  0.081666474    4368.2537  0.046862443     4368.423    175.62104 
  567300  0.078880196    4368.2709  0.043422363    4368.4326    175.62065 
  567400   0.07748371    4368.2596  0.033964272    4368.4097    175.62079 
  567500  0.063673566     4368.271  0.034327642    4368.4008    175.62059 
  567600  0.080732563    4368.2698  0.034872153    4368.4257    175.62128 
  567700  0.075460206    4368.2611  0.042657712    4368.4169    175.62019 
  567800   0.07164228    4368.2622  0.035351151     4368.405    175.62109 
  567900  0.067447778    4368.2582   0.04374516     4368.403    175.62147 
  568000  0.078824798    4368.2657  0.034409431    4368.4183    175.62055 
  568100  0.078657934    4368.2712   0.02852183    4368.4177    175.62163 
  568200  0.078721571    4368.2593  0.042691563      4368.42    175.62097 
  568300  0.072406364    4368.2727  0.041998101    4368.4232    175.62091 
  568400  0.072053084    4368.2693  0.050943144    4368.4283    175.61993 
  568500  0.079802644    4368.2715  0.041107936    4368.4322    175.62115 
  568600  0.075014049    4368.2603   0.04629069    4368.4191    175.62025 
  568700  0.076068405    4368.2579  0.043735384    4368.4157    175.62049 
  568800  0.079061429    4368.2601  0.034782599    4368.4134    175.62139 
  568900  0.073006787    4368.2628  0.042476151    4368.4147    175.62087 
  569000  0.084349797    4368.2603  0.048921399    4368.4357    175.62158 
  569100   0.07703732     4368.268  0.044618995    4368.4281     175.6215 
  569200  0.085592276    4368.2613  0.041033972    4368.4307    175.62063 
  569300  0.078832093    4368.2638  0.045340194    4368.4273    175.62038 
  569400  0.073274383    4368.2663  0.038658526    4368.4148    175.62125 
  569500  0.073876423    4368.2691  0.046309352    4368.4262    175.62055 
  569600  0.082639841    4368.2684  0.040302291    4368.4326    175.61974 
  569700   0.08667442    4368.2625  0.034028163    4368.4265    175.62053 
  569800  0.069345541    4368.2624  0.042623764     4368.409    175.62062 
  569900  0.071050956     4368.268  0.037010421    4368.4115    175.62101 
  570000   0.06903415     4368.271  0.034204815    4368.4087    175.62138 
  570100  0.070496085    4368.2727  0.035939441    4368.4143    175.62176 
  570200  0.078455149    4368.2624  0.030496887    4368.4105    175.62091 
  570300  0.067640904    4368.2657  0.041803191    4368.4089    175.62047 
  570400  0.077738611    4368.2666  0.036906492      4368.42    175.62094 
  570500  0.085217722     4368.267  0.039187979    4368.4339     175.6214 
  570600  0.087784593    4368.2672  0.031800556    4368.4306     175.6206 
  570700  0.073050946    4368.2669  0.031165909    4368.4076    175.62014 
  570800   0.06711355    4368.2675  0.035491406    4368.4036       175.62 
  570900  0.073934335    4368.2639  0.034266044    4368.4089    175.62087 
  571000  0.081144724    4368.2587  0.041774685    4368.4221    175.62046 
  571100  0.087197388    4368.2729  0.043280758    4368.4468     175.6204 
  571200  0.074973188    4368.2695   0.03345696    4368.4154    175.62124 
  571300  0.073389381    4368.2614  0.037630381    4368.4091    175.61991 
  571400  0.080645542    4368.2669  0.045129042     4368.433    175.62072 
  571500  0.091395506    4368.2676  0.045007137    4368.4496    175.62173 
  571600  0.085674509    4368.2685  0.050133917     4368.447    175.61961 
  571700  0.081731757    4368.2667  0.037111666    4368.4263    175.62079 
  571800   0.07995139    4368.2678  0.034377234     4368.422    175.62139 
  571900   0.06625755    4368.2691  0.032266604    4368.4007    175.62151 
  572000   0.06931676    4368.2681   0.03202474     4368.404     175.6201 
  572100  0.068228762    4368.2585   0.02854505    4368.3893     175.6215 
  572200  0.067004985    4368.2712  0.032543868    4368.4042    175.62114 
  572300  0.070305022    4368.2664  0.034310073    4368.4061    175.62014 
  572400  0.068650436    4368.2645  0.035140642    4368.4026    175.62057 
  572500  0.078884956    4368.2605  0.038542465    4368.4172    175.62063 
  572600   0.07386956     4368.266  0.036292687     4368.413    175.62098 
  572700   0.08114292    4368.2675  0.036938667     4368.426    175.62042 
  572800   0.07655213    4368.2704  0.033771221    4368.4189    175.62092 
  572900  0.073327974    4368.2712  0.042986199    4368.4241    175.61964 
  573000  0.074086381    4368.2679  0.046505264    4368.4255    175.62127 
  573100    0.0819608    4368.2677  0.038637868    4368.4292    175.62087 
  573200  0.079585658    4368.2626  0.035893887    4368.4178    175.62122 
  573300   0.08360576    4368.2684  0.033119092    4368.4268    175.62055 
  573400   0.07437908    4368.2694  0.034029689    4368.4149    175.62021 
  573500  0.061906673    4368.2712  0.034213765    4368.3982    175.62084 
  573600  0.070486224    4368.2714  0.035757987    4368.4128    175.62024 
  573700  0.078012557    4368.2657  0.042896199    4368.4255    175.62022 
  573800  0.081570174      4368.27  0.033583583    4368.4258    175.62067 
  573900  0.076412062    4368.2622   0.03442928    4368.4112    175.62156 
  574000  0.067965348    4368.2689  0.040266895     4368.411    175.62004 
  574100  0.068656636    4368.2632  0.039097946    4368.4052    175.61963 
  574200  0.072583697    4368.2678  0.039911183    4368.4165    175.62119 
  574300  0.076927442    4368.2615   0.03211159    4368.4089    175.62089 
  574400  0.084082565    4368.2619  0.044951872    4368.4328    175.62128 
  574500  0.080611072     4368.263   0.03994238    4368.4237    175.62053 
  574600  0.083630385    4368.2622   0.03996363    4368.4275    175.62055 
  574700  0.078685548    4368.2676   0.04345018     4368.429       175.62 
  574800  0.065824651    4368.2699  0.037833815    4368.4064    175.62084 
  574900  0.072359636    4368.2609  0.043810818    4368.4131    175.62072 
  575000  0.083889085    4368.2653  0.030131912    4368.4212    175.62099 
  575100  0.080640937    4368.2672  0.032739528    4368.4208    175.62076 
  575200   0.07508246    4368.2703  0.039316261    4368.4221    175.62034 
  575300  0.069407451    4368.2717  0.042443105    4368.4182    175.62017 
  575400  0.089700085    4368.2593  0.044795662    4368.4385    175.62138 
  575500  0.078190247    4368.2649  0.037787791    4368.4199    175.62123 
  575600  0.080436676    4368.2683  0.036120429     4368.425    175.62053 
  575700  0.077597283    4368.2619  0.046793839     4368.425    175.62098 
  575800  0.082125934    4368.2656  0.041560189    4368.4303     175.6197 
  575900  0.095923908    4368.2652  0.042479494    4368.4515     175.6212 
  576000  0.081149123    4368.2725  0.048484758    4368.4426    175.62031 
  576100  0.080348763    4368.2711   0.05051307    4368.4421    175.62111 
  576200  0.076323322    4368.2655  0.044019794     4368.424    175.62051 
  576300  0.069341635    4368.2683  0.042082525    4368.4143     175.6199 
  576400  0.078526786    4368.2695  0.046956287    4368.4342     175.6211 
  576500  0.082963744    4368.2655  0.042437224    4368.4323    175.62192 
  576600  0.081037352    4368.2654  0.035696706    4368.4226    175.62055 
  576700  0.071723269    4368.2679   0.04090391    4368.4163    175.62117 
  576800  0.064232999    4368.2643  0.049866617    4368.4104    175.61947 
  576900  0.078818839    4368.2669  0.040123335    4368.4252    175.61996 
  577000  0.077939173    4368.2634  0.033478426    4368.4137    175.62129 
  577100  0.082098883     4368.268  0.033169539    4368.4242     175.6205 
  577200  0.080253225    4368.2717  0.032850601    4368.4248    175.62131 
  577300  0.081027916    4368.2658  0.039766565    4368.4271    175.62079 
  577400  0.080403495    4368.2674  0.038463778    4368.4264     175.6209 
  577500  0.071929107    4368.2719  0.039069014    4368.4188    175.62074 
  577600  0.075733369    4368.2688  0.032842707    4368.4152    175.62082 
  577700  0.077538444    4368.2736  0.037787917    4368.4276    175.62049 
  577800  0.080062551    4368.2621  0.033183875    4368.4153    175.62122 
  577900   0.07295417    4368.2647  0.031053177    4368.4051    175.62114 
  578000  0.083257643    4368.2643  0.040615364    4368.4297     175.6207 
  578100  0.073738129    4368.2667  0.034782546     4368.412    175.62049 
  578200   0.06534974    4368.2632  0.033010667    4368.3942    175.62055 
  578300  0.071441984     4368.264   0.02631039    4368.3974     175.6206 
  578400  0.075623584    4368.2637  0.023427731    4368.4005    175.62126 
  578500  0.072427654    4368.2619  0.031524619     4368.402    175.62105 
  578600  0.065321633    4368.2653  0.035670903    4368.3988    175.62072 
  578700  0.066082124    4368.2666  0.033390948    4368.3991    175.62048 
  578800  0.069146841    4368.2668  0.035146007    4368.4056    175.62034 
  578900  0.079036155    4368.2694   0.03233955    4368.4202    175.62057 
  579000  0.083814966    4368.2629  0.038494761     4368.427    175.62037 
  579100  0.079736781    4368.2617  0.034010984    4368.4152    175.62063 
  579200  0.076371649    4368.2648  0.036265854    4368.4156     175.6202 
  579300  0.085106245    4368.2639  0.040015924    4368.4315    175.62112 
  579400  0.075149981    4368.2647  0.044931665    4368.4223    175.62152 
  579500  0.073193752    4368.2563  0.042522615    4368.4085    175.62116 
  579600  0.065465443    4368.2684  0.035552243     4368.402    175.62124 
  579700  0.077362446    4368.2652  0.030632386    4368.4118    175.62129 
  579800  0.076921923    4368.2672  0.042412037    4368.4249    175.62048 
  579900  0.074688457    4368.2668  0.040690908    4368.4194    175.62114 
  580000  0.061545388    4368.2618  0.037674906    4368.3918    175.62078 
  580100   0.06783818    4368.2721  0.039171942     4368.413    175.62107 
  580200  0.085815337    4368.2597  0.043331489    4368.4317    175.62048 
  580300  0.071787197    4368.2648  0.032106138    4368.4045    175.62118 
  580400  0.067244193    4368.2625  0.033084688    4368.3963     175.6203 
  580500  0.064858127     4368.258  0.032638226    4368.3879    175.62007 
  580600  0.081416628    4368.2636   0.04226095    4368.4278    175.62073 
  580700  0.082475578    4368.2717  0.040251283    4368.4356    175.62246 
  580800  0.078672389    4368.2697   0.04078582    4368.4284    175.62092 
  580900  0.073787029    4368.2645  0.049730605    4368.4248    175.61948 
  581000  0.079104807    4368.2688  0.046927282    4368.4343    175.62038 
  581100  0.072314764    4368.2638    0.0638095     4368.436    175.62056 
  581200  0.078837207    4368.2664  0.047678691    4368.4322    175.62128 
  581300   0.08443336    4368.2637  0.044369545    4368.4346    175.62147 
  581400  0.078701562    4368.2659  0.050322925    4368.4341    175.62058 
  581500   0.07534059     4368.265  0.037734327    4368.4157    175.62024 
  581600  0.070803684    4368.2658  0.039942551    4368.4119    175.62145 
  581700  0.078586123    4368.2685  0.038696913     4368.425    175.62075 
  581800  0.087357426    4368.2618  0.034853776    4368.4276    175.62107 
  581900  0.059907999    4368.2591  0.044875997    4368.3937    175.62045 
  582000  0.070488155    4368.2758  0.040983212    4368.4224    175.62139 
  582100  0.073415578    4368.2706  0.048722577    4368.4294    175.61981 
  582200  0.075429704    4368.2738  0.038219056    4368.4251    175.62046 
  582300  0.065079391    4368.2692  0.040259368     4368.407    175.62012 
  582400  0.068865367    4368.2692  0.038649428    4368.4111    175.62088 
  582500  0.075933919    4368.2614  0.041938165    4368.4172     175.6197 
  582600  0.072605761    4368.2681  0.045366031    4368.4223    175.62118 
  582700  0.082460095    4368.2686  0.034737007     4368.427    175.62059 
  582800  0.066971593    4368.2636  0.043295952    4368.4073    175.62118 
  582900  0.071940922    4368.2621  0.040759285    4368.4107    175.62148 
  583000   0.07804749    4368.2651  0.039260472    4368.4213    175.62076 
  583100  0.076806748    4368.2625  0.033468075    4368.4111    175.62114 
  583200  0.073943906    4368.2671   0.03904197    4368.4169    175.61995 
  583300  0.085145553    4368.2693  0.044745745    4368.4416    175.62096 
  583400  0.081148848    4368.2657  0.040116826    4368.4274    175.62045 
  583500  0.084318187     4368.264  0.037067936    4368.4274    175.62154 
  583600  0.076308154    4368.2696  0.036965968     4368.421    175.62042 
  583700  0.065712792    4368.2684  0.042128565     4368.409    175.61989 
  583800  0.068811934    4368.2682  0.042867584    4368.4142     175.6201 
  583900  0.082988064    4368.2714  0.040004134    4368.4357    175.62028 
  584000  0.081623122     4368.268  0.048801658    4368.4392    175.62116 
  584100  0.079079984    4368.2731  0.040278573    4368.4319    175.62037 
  584200  0.084878827     4368.273  0.042989889    4368.4432    175.62043 
  584300  0.090231705    4368.2689  0.039998034    4368.4441    175.62052 
  584400  0.077255121    4368.2675  0.034246165    4368.4175    175.62052 
  584500   0.06707324    4368.2658  0.045515994    4368.4119    175.62033 
  584600  0.067576787    4368.2726  0.033042275    4368.4069    175.62022 
  584700   0.06809975    4368.2663  0.043159067    4368.4115    175.61989 
  584800  0.074785724    4368.2674  0.031260785    4368.4107    175.62073 
  584900  0.081385933     4368.263  0.044086102    4368.4291    175.62008 
  585000  0.074422338    4368.2663  0.039014109    4368.4169    175.62015 
  585100  0.077900816    4368.2646  0.037597733     4368.419    175.62049 
  585200  0.075521955    4368.2655  0.041998312    4368.4207    175.62104 
  585300  0.084016759    4368.2701  0.037278126    4368.4333    175.62164 
  585400  0.074045516    4368.2712  0.034386351    4368.4166     175.6205 
  585500  0.064763946    4368.2588  0.043141598     4368.399    175.61945 
  585600  0.077728711    4368.2681  0.037688747    4368.4223    175.62095 
  585700  0.084863279    4368.2727  0.039094391     4368.439    175.62055 
  585800  0.077123379    4368.2662  0.038935838    4368.4208    175.62073 
  585900  0.081548578     4368.259  0.041316018    4368.4225    175.62002 
  586000  0.079609235    4368.2685  0.037420754    4368.4252    175.62094 
  586100  0.076822622     4368.266  0.041284831    4368.4225    175.61962 
  586200  0.071400515    4368.2648  0.042528427    4368.4143    175.62022 
  586300   0.06719099    4368.2664  0.030984333    4368.3981    175.62093 
  586400   0.06600847    4368.2676  0.038390942    4368.4049    175.61966 
  586500  0.073050598    4368.2635  0.037022671      4368.41    175.62051 
  586600  0.083191133     4368.259  0.041634545    4368.4253    175.62181 
  586700  0.082447321    4368.2647  0.057874458    4368.4462    175.62046 
  586800  0.081864531    4368.2681  0.045741081    4368.4366    175.62047 
  586900  0.084329815     4368.265  0.053797718    4368.4452    175.61956 
  587000  0.073960014    4368.2654  0.056221169    4368.4325    175.61928 
  587100  0.070424248    4368.2627  0.046577306    4368.4148     175.6215 
  587200  0.073281779    4368.2703  0.040996969    4368.4212    175.61986 
  587300  0.087985955    4368.2698  0.041527446    4368.4432    175.62093 
  587400  0.076479825     4368.264  0.048971298    4368.4276    175.61972 
  587500  0.085732838    4368.2718  0.029977891    4368.4303    175.62072 
  587600  0.084461832    4368.2715  0.035855369    4368.4339    175.62088 
  587700  0.077320109     4368.267  0.040383237    4368.4233    175.62148 
  587800  0.082451795    4368.2656  0.034429578    4368.4236    175.62075 
  587900   0.07084843    4368.2629   0.04464887    4368.4138    175.62074 
  588000  0.069064648    4368.2693  0.041017285    4368.4138    175.62067 
  588100  0.073152518    4368.2672  0.036566282    4368.4134     175.6201 
  588200  0.066562158    4368.2599  0.036688578    4368.3964     175.6202 
  588300  0.071334089    4368.2686  0.029879717    4368.4054    175.61997 
  588400  0.064629342    4368.2702  0.033045267    4368.4001    175.62095 
  588500   0.06625066    4368.2682  0.033807959    4368.4013    175.62095 
  588600  0.059731152    4368.2746  0.033534323    4368.3976    175.62002 
  588700  0.065740363    4368.2734  0.035320335    4368.4073    175.61926 
  588800  0.068060765    4368.2748  0.037792799    4368.4146    175.61988 
  588900  0.062498042    4368.2661  0.031573068    4368.3913    175.62074 
  589000  0.070852484    4368.2715  0.027730032    4368.4054    175.62122 
  589100  0.070543832    4368.2701  0.036064044    4368.4119    175.62136 
  589200  0.074495952    4368.2667  0.031763405    4368.4102    175.62132 
  589300  0.076666593      4368.27  0.036179879    4368.4211    175.62122 
  589400  0.074044787    4368.2689  0.036034045    4368.4159    175.62015 
  589500  0.065921223    4368.2574  0.031475949    4368.3877    175.62172 
  589600   0.08206089    4368.2766  0.031195819    4368.4308    175.62076 
  589700  0.068160926    4368.2667  0.036199893    4368.4051     175.6206 
  589800  0.070527725    4368.2651  0.040880539    4368.4117    175.62039 
  589900  0.074441134    4368.2635  0.033889684     4368.409    175.62012 
  590000  0.081389013     4368.266  0.042282879    4368.4303       175.62 
  590100   0.07313736     4368.268  0.029097258    4368.4067    175.62073 
  590200  0.072857495    4368.2686  0.034108392    4368.4119    175.62053 
  590300  0.074036599    4368.2681  0.028098688    4368.4071    175.62045 
  590400  0.070795744    4368.2646  0.041534312    4368.4123    175.62045 
  590500   0.07880301     4368.267  0.036995348    4368.4221    175.62011 
  590600  0.068418003    4368.2593  0.039130039     4368.401    175.62187 
  590700  0.076320031     4368.264   0.03169551      4368.41    175.62007 
  590800  0.066862896    4368.2693  0.026408131    4368.3959    175.62085 
  590900  0.061472892    4368.2699   0.03078417    4368.3928    175.62125 
  591000  0.071346079    4368.2662  0.042048126    4368.4151    175.62084 
  591100  0.071332836    4368.2667  0.038479056    4368.4121    175.62104 
  591200  0.075375826    4368.2663  0.044861434    4368.4242    175.62001 
  591300  0.068270328     4368.261  0.038893258    4368.4022    175.62146 
  591400  0.082476953    4368.2641  0.039414377    4368.4272     175.6201 
  591500  0.071054239    4368.2705  0.049345506    4368.4263    175.62089 
  591600  0.081168359    4368.2653  0.039731615    4368.4267    175.61978 
  591700  0.071737772    4368.2639  0.045410927    4368.4168     175.6206 
  591800  0.069732814    4368.2669  0.041135221    4368.4126    175.61973 
  591900  0.076706461    4368.2637  0.040828659    4368.4195    175.62081 
  592000  0.067993574    4368.2601  0.037232659    4368.3992    175.62094 
  592100  0.075881729    4368.2673  0.035482604    4368.4165    175.62097 
  592200   0.07956307     4368.262  0.038048201    4368.4193    175.62034 
  592300  0.078990119    4368.2609  0.039833941    4368.4191    175.62105 
  592400  0.068004849    4368.2624    0.0401223    4368.4044    175.62058 
  592500  0.070742216    4368.2628  0.029929421    4368.3988    175.62025 
  592600  0.074160535    4368.2672  0.032863912    4368.4112    175.62112 
  592700  0.066635731    4368.2642  0.031236688    4368.3953    175.62102 
  592800  0.074488926    4368.2673  0.036060925     4368.415    175.62087 
  592900  0.089259155    4368.2699  0.036266984      4368.44    175.62124 
  593000  0.083341288    4368.2665  0.041805271    4368.4332    175.62089 
  593100  0.084082716    4368.2618  0.036358252    4368.4242     175.6203 
  593200  0.071040707    4368.2665  0.037527537    4368.4105    175.62037 
  593300  0.076113384    4368.2618  0.033421881    4368.4093    175.62112 
  593400  0.072291454    4368.2656  0.033309071    4368.4073     175.6205 
  593500  0.082380729    4368.2623  0.042004607    4368.4277    175.61983 
  593600  0.072919468    4368.2655  0.037644213    4368.4125    175.62082 
  593700  0.081928328    4368.2633  0.034345527    4368.4205     175.6213 
  593800  0.071968402    4368.2633   0.03804229    4368.4092    175.62174 
  593900  0.076750956     4368.269  0.040830407    4368.4248    175.62124 
  594000  0.073555884    4368.2588  0.039473879    4368.4085    175.62138 
  594100  0.074561026    4368.2681  0.041111255    4368.4209    175.62095 
  594200  0.075041212    4368.2612  0.039654719    4368.4133    175.62048 
  594300  0.086360994     4368.258  0.037255018    4368.4247    175.62065 
  594400  0.076476082    4368.2586  0.050213739    4368.4235    175.62095 
  594500  0.078898657    4368.2609  0.036229547    4368.4154    175.62101 
  594600  0.078340091    4368.2671  0.037005357    4368.4215    175.62183 
  594700  0.077030602    4368.2651  0.037144439    4368.4177    175.62068 
  594800  0.078156362    4368.2693  0.036589736     4368.423    175.62077 
  594900  0.071865055    4368.2701  0.039533294    4368.4174    175.62026 
  595000  0.073583774    4368.2703  0.039153361    4368.4198    175.62053 
  595100  0.086746233    4368.2536  0.047622294    4368.4313    175.62036 
  595200  0.085777034    4368.2717  0.035567027    4368.4358     175.6213 
  595300  0.083805757     4368.261  0.030206421    4368.4168    175.62127 
  595400  0.071932469    4368.2602  0.042549494    4368.4105    175.62157 
  595500  0.077774459    4368.2574  0.039605273    4368.4136    175.62075 
  595600  0.072187948    4368.2562  0.027907898    4368.3923    175.62111 
  595700  0.070508845    4368.2672  0.034907206    4368.4077    175.62068 
  595800  0.072143572    4368.2694   0.03553089     4368.413    175.62067 
  595900  0.068401974    4368.2658  0.036937109    4368.4053    175.62106 
  596000   0.06796892    4368.2644  0.033950346    4368.4002     175.6209 
  596100  0.075368149     4368.263  0.029840865    4368.4058    175.62159 
  596200   0.07290324    4368.2693  0.032463688     4368.411    175.62089 
  596300  0.076410304    4368.2684  0.030672286    4368.4136    175.62069 
  596400  0.067937642    4368.2663  0.036602676    4368.4047    175.62083 
  596500   0.07835478    4368.2667   0.03501066    4368.4192    175.61985 
  596600  0.084244437    4368.2667  0.034391974    4368.4274    175.62159 
  596700  0.074631669    4368.2652  0.034515408    4368.4116    175.62046 
  596800  0.081276647     4368.259  0.043922906    4368.4248    175.62051 
  596900  0.076363864    4368.2673  0.052938664    4368.4347    175.61996 
  597000  0.070647394    4368.2667  0.039044232    4368.4116    175.61973 
  597100  0.088019332    4368.2683  0.044837857     4368.445    175.62094 
  597200  0.090455036    4368.2694  0.039891494    4368.4449    175.62174 
  597300   0.08654451    4368.2618  0.038722877    4368.4302    175.62073 
  597400  0.075562945     4368.269  0.036293868    4368.4186    175.62075 
  597500  0.076817973    4368.2609  0.046627444    4368.4227    175.62073 
  597600  0.079173524    4368.2595  0.042817245     4368.421    175.62104 
  597700  0.065911897    4368.2599  0.033822784    4368.3925    175.62128 
  597800  0.079071633    4368.2589  0.043888541    4368.4213    175.62105 
  597900   0.06960625    4368.2622   0.04567049    4368.4122    175.62081 
  598000  0.075452852    4368.2589  0.034111194    4368.4061    175.62265 
  598100  0.070530628      4368.26  0.036220001    4368.4019    175.62055 
  598200  0.074658577    4368.2658  0.040389062    4368.4181    175.62055 
  598300  0.074649278    4368.2666  0.033464205    4368.4119    175.62061 
  598400  0.078989891    4368.2547  0.034081058    4368.4072    175.62073 
  598500  0.076692764    4368.2621  0.035464585    4368.4125    175.62104 
  598600  0.070862672    4368.2563  0.033056593    4368.3955     175.6211 
  598700  0.063746825    4368.2573    0.0370987      4368.39    175.62108 
  598800  0.076815209    4368.2571  0.031971238    4368.4042    175.61998 
  598900  0.077495448    4368.2623  0.034201634    4368.4126    175.62097 
  599000  0.067647969    4368.2577  0.028552662    4368.3876    175.62124 
  599100  0.070919348    4368.2639  0.039342852    4368.4096    175.62059 
  599200  0.070860323    4368.2608  0.032881466    4368.3999    175.62113 
  599300  0.068883389    4368.2634  0.036635326    4368.4033     175.6196 
  599400  0.075379009    4368.2628   0.04160904    4368.4173    175.62178 
  599500  0.076857502    4368.2622  0.034450557    4368.4118    175.62078 
  599600  0.074468447    4368.2639  0.030586705    4368.4061    175.62019 
  599700  0.077636453    4368.2588  0.033996026    4368.4091    175.62116 
  599800   0.07493629    4368.2628  0.033842025     4368.409    175.62148 
  599900  0.077767366    4368.2683  0.034906616    4368.4197     175.6207 
  600000  0.076442754    4368.2658  0.033227683    4368.4136    175.61992 
  600100  0.066370438    4368.2574  0.041529403    4368.3984    175.62237 
  600200  0.077162965    4368.2657  0.038379194    4368.4198    175.62076 
  600300    0.0779883    4368.2644  0.044980843    4368.4263    175.62044 
  600400  0.072739181    4368.2698  0.042780355    4368.4216    175.62126 
  600500   0.07024844    4368.2626  0.037672699    4368.4055    175.62128 
  600600  0.076729883     4368.259  0.034616347    4368.4086    175.62047 
  600700  0.068104335    4368.2633  0.041886535    4368.4073    175.62195 
  600800  0.060428864    4368.2612  0.053508217    4368.4052    175.61951 
  600900  0.067636417    4368.2642  0.033856268    4368.3994    175.62107 
  601000  0.068677885    4368.2613  0.033878488    4368.3981    175.62134 
  601100  0.069773113    4368.2576  0.034243409    4368.3964    175.62098 
  601200  0.067494734    4368.2673  0.028071991    4368.3966    175.62089 
  601300   0.06513682    4368.2564   0.02505684    4368.3791    175.62095 
  601400  0.067454765    4368.2565  0.031678244    4368.3893    175.62097 
  601500  0.076494484    4368.2575  0.032900964    4368.4051    175.61983 
  601600  0.072902258    4368.2575  0.032725061    4368.3995    175.62173 
  601700   0.06969714    4368.2576  0.037090313    4368.3991    175.62118 
  601800  0.083754253    4368.2682  0.035213133    4368.4289    175.62042 
  601900  0.077488487     4368.263  0.033958525    4368.4131    175.62136 
  602000  0.071070026    4368.2566  0.031713332    4368.3948    175.62137 
  602100  0.067434352    4368.2696  0.035502425    4368.4062    175.61982 
  602200  0.068296804    4368.2582  0.036614251    4368.3971    175.62016 
  602300  0.062406503    4368.2681  0.041214008    4368.4028    175.62073 
  602400  0.067345914    4368.2668  0.033715478    4368.4015    175.62038 
  602500  0.068604567    4368.2621  0.034830732    4368.3997    175.62052 
  602600  0.072682955    4368.2624  0.038016632    4368.4093    175.62072 
  602700  0.085711555    4368.2599  0.035442127    4368.4238    175.62132 
  602800  0.081672112    4368.2641  0.036428109     4368.423    175.62077 
  602900   0.08552425    4368.2567  0.043221861    4368.4281    175.62075 
  603000  0.075667451    4368.2646  0.042568887    4368.4205    175.62169 
  603100  0.077084445    4368.2597  0.043526393    4368.4188    175.62058 
  603200  0.075412603    4368.2675  0.039300011    4368.4199    175.62092 
  603300  0.067657565    4368.2616  0.042254994    4368.4052    175.62088 
  603400  0.063388013    4368.2677  0.042767089    4368.4054    175.62101 
  603500  0.074812765    4368.2562  0.031790883    4368.4001    175.62069 
  603600  0.072843228    4368.2714  0.038017301    4368.4186    175.62055 
  603700  0.072898012    4368.2655  0.036979632    4368.4117    175.62103 
  603800  0.069967926    4368.2687  0.039222761    4368.4128    175.62061 
  603900  0.066082749    4368.2695  0.030422855    4368.3989    175.62129 
  604000  0.069163953    4368.2645  0.042514545    4368.4107     175.6203 
  604100  0.078020122    4368.2611  0.040226997    4368.4183     175.6206 
  604200  0.068745724    4368.2553  0.044743613    4368.4031    175.62083 
  604300  0.084683841    4368.2711  0.037724632    4368.4358    175.61977 
  604400  0.081560608    4368.2651  0.051495624    4368.4388    175.61967 
  604500  0.080058843    4368.2619   0.03843073    4368.4203    175.62036 
  604600   0.07464581    4368.2642  0.037392267    4368.4135    175.62127 
  604700  0.077568014    4368.2671  0.043689449    4368.4271    175.62008 
  604800  0.078910179    4368.2727  0.040478009    4368.4315    175.62034 
  604900  0.087178926    4368.2627  0.046640355      4368.44    175.62137 
  605000  0.083133881    4368.2646  0.041346972    4368.4305    175.62085 
  605100   0.07451452    4368.2632  0.044999646    4368.4199    175.62055 
  605200  0.063517505    4368.2648  0.036451213    4368.3964    175.62118 
  605300  0.059770677    4368.2684  0.034050869     4368.392    175.62047 
  605400  0.068690733    4368.2696  0.028926422    4368.4015    175.62141 
  605500  0.068630988    4368.2589  0.027876604    4368.3896    175.62043 
  605600  0.068698982     4368.267  0.034179212    4368.4041    175.62069 
  605700  0.069840826     4368.263  0.033530533    4368.4012    175.62063 
  605800  0.075892783    4368.2624  0.027266694    4368.4034    175.62079 
  605900  0.074719736    4368.2638  0.030600121    4368.4064    175.62084 
  606000  0.074655149    4368.2687  0.037586738    4368.4182    175.62043 
  606100  0.072583377    4368.2621  0.039021823    4368.4099    175.62121 
  606200  0.077626751    4368.2688  0.035196804    4368.4203    175.62014 
  606300  0.073171742     4368.267  0.042491265    4368.4192    175.62197 
  606400  0.075547085    4368.2552  0.038344205    4368.4068    175.62093 
  606500  0.077516518    4368.2679  0.042949909     4368.427    175.62028 
  606600  0.071560289     4368.261  0.032807872    4368.4011    175.62131 
  606700  0.073897062    4368.2589  0.040650091    4368.4104    175.62065 
  606800  0.069579727    4368.2588  0.037598343    4368.4007    175.62126 
  606900  0.069158342    4368.2625  0.029769142    4368.3959    175.62076 
  607000   0.07197173    4368.2575  0.027554471    4368.3929    175.62078 
  607100  0.065944296    4368.2678  0.033216287    4368.3998    175.62111 
  607200  0.074412289    4368.2594  0.027471412    4368.3984    175.62096 
  607300  0.073209579    4368.2671  0.032625329    4368.4094    175.62107 
  607400  0.069103788    4368.2662  0.040608225    4368.4104    175.62043 
  607500  0.073480438    4368.2681  0.030775468     4368.409    175.62078 
  607600  0.069564002     4368.268  0.039204166    4368.4114    175.62028 
  607700  0.074327078     4368.272  0.034621425     4368.418    175.62013 
  607800  0.059290079    4368.2703  0.036515453    4368.3957    175.62076 
  607900  0.066302087    4368.2636   0.03785904    4368.4008    175.61923 
  608000  0.071345989    4368.2668  0.039052543    4368.4128    175.62085 
  608100  0.072281289    4368.2715  0.046072678     4368.426    175.62022 
  608200  0.073550878    4368.2675  0.035363591    4368.4131     175.6209 
  608300  0.080172342    4368.2668  0.041750125    4368.4288    175.62037 
  608400  0.074538976    4368.2686  0.038101373    4368.4184    175.62016 
  608500  0.068549594    4368.2643  0.040185915    4368.4073    175.62081 
  608600  0.070019518    4368.2608  0.036049555    4368.4018    175.62078 
  608700  0.073144195    4368.2686  0.035071664    4368.4133    175.62047 
  608800  0.069642491    4368.2667  0.032211336    4368.4033    175.62027 
  608900  0.076726752    4368.2674  0.040158412    4368.4226    175.62013 
  609000  0.068750503    4368.2687  0.038326938    4368.4101    175.62104 
  609100   0.07707054    4368.2667  0.035938024    4368.4182    175.61996 
  609200  0.075802879     4368.267  0.030648209    4368.4112    175.62026 
  609300   0.07558304    4368.2633  0.033207035    4368.4098    175.62026 
  609400  0.086739837    4368.2574  0.041596051     4368.429    175.61982 
  609500  0.076475141    4368.2741  0.040636182    4368.4293    175.62005 
  609600  0.078072734     4368.269  0.040259384    4368.4263    175.62024 
  609700  0.071795391    4368.2616  0.047164984    4368.4164    175.62123 
  609800  0.082412545    4368.2647   0.04081871     4368.429    175.62079 
  609900  0.083249048    4368.2677  0.042107491    4368.4346    175.62101 
  610000  0.077339686    4368.2661  0.035458673    4368.4175    175.62144 
  610100  0.075949796    4368.2704  0.040932519    4368.4251    175.62038 
  610200  0.080668496    4368.2615  0.034313318    4368.4167    175.62091 
  610300  0.076205277    4368.2722  0.041108488    4368.4275    175.62047 
  610400  0.072041043    4368.2627  0.042870102    4368.4135    175.62105 
  610500  0.076761518    4368.2672  0.034702375     4368.417    175.62054 
  610600  0.071924279    4368.2668  0.035402335      4368.41    175.62129 
  610700  0.065521186    4368.2724  0.036134696    4368.4068    175.62094 
  610800  0.070427524    4368.2698  0.030815747    4368.4062    175.62006 
  610900  0.073318286    4368.2714  0.032074475    4368.4134    175.62073 
  611000  0.066991209    4368.2619   0.03661607    4368.3989    175.62066 
  611100  0.081991661    4368.2699  0.042950945    4368.4357    175.62065 
  611200  0.079228488    4368.2663  0.037986983     4368.423    175.62032 
  611300  0.077801525    4368.2724  0.037374806    4368.4264     175.6218 
  611400  0.076523464    4368.2696  0.049205232    4368.4335    175.62089 
  611500  0.090344587    4368.2737  0.031769407    4368.4409    175.62002 
  611600  0.086570018    4368.2665  0.035082111    4368.4313    175.61955 
  611700  0.083854112    4368.2686  0.034114223    4368.4284     175.6203 
  611800  0.069906541    4368.2655  0.039808377    4368.4101    175.62135 
  611900  0.077116413    4368.2669   0.03288416    4368.4154    175.62068 
  612000  0.079603601    4368.2618  0.038718733    4368.4199    175.62086 
  612100  0.071773981     4368.272  0.038636105    4368.4182    175.62069 
  612200  0.071510579    4368.2674  0.032955543    4368.4076    175.62105 
  612300   0.07660023    4368.2624  0.034201911    4368.4114    175.62138 
  612400  0.084092709    4368.2648  0.040340086    4368.4312    175.62017 
  612500  0.078600809     4368.271  0.036211777     4368.425    175.62126 
  612600  0.076502353    4368.2621  0.035139517    4368.4119      175.621 
  612700  0.068876191    4368.2696   0.03809017    4368.4109     175.6205 
  612800  0.069056743    4368.2741  0.035550688    4368.4131    175.62045 
  612900  0.080094977     4368.265  0.030583089    4368.4157     175.6208 
  613000  0.079314554     4368.267  0.038684798    4368.4246    175.62062 
  613100  0.068048026    4368.2718  0.045483471    4368.4193    175.61965 
  613200  0.074977354    4368.2642   0.04344535    4368.4201    175.62131 
  613300  0.073586824    4368.2689  0.048252288    4368.4275    175.62034 
  613400  0.072763877    4368.2607  0.038895483    4368.4086    175.62149 
  613500  0.077036853    4368.2629  0.040422452    4368.4188    175.62058 
  613600   0.07662008    4368.2635  0.033589487    4368.4119    175.62116 
  613700  0.071714488    4368.2573  0.043654434    4368.4085    175.62202 
  613800  0.083134043    4368.2634  0.035851044    4368.4238    175.62133 
  613900  0.085954107    4368.2619  0.039327099      4368.43    175.62062 
  614000  0.084666593     4368.266  0.045625151    4368.4386    175.62142 
  614100  0.073046019    4368.2668  0.040554654    4368.4169    175.62088 
  614200  0.077402803    4368.2591   0.03507784    4368.4102    175.62122 
  614300  0.077256324    4368.2656  0.033563798    4368.4149    175.62082 
  614400  0.077412511    4368.2625  0.034012333    4368.4126    175.62111 
  614500  0.081117353    4368.2683  0.036204612    4368.4261    175.62084 
  614600  0.072069164    4368.2598  0.034985667    4368.4028    175.62079 
  614700  0.069993037     4368.259  0.030295427    4368.3942    175.62108 
  614800  0.067311109    4368.2597  0.029074771    4368.3896    175.62142 
  614900  0.059649087    4368.2693  0.037519773    4368.3963    175.62086 
  615000  0.064509194    4368.2654  0.034018129    4368.3961    175.61982 
  615100  0.070451697    4368.2618  0.040149949    4368.4075    175.62045 
  615200   0.07215246    4368.2648  0.035107735     4368.408    175.62054 
  615300  0.073775877    4368.2671  0.034574843    4368.4123     175.6199 
  615400  0.070695213    4368.2696  0.034415249      4368.41    175.61972 
  615500  0.079103681    4368.2639  0.032414309    4368.4148    175.62032 
  615600  0.073447614    4368.2664  0.036737331    4368.4132     175.6213 
  615700  0.069323499    4368.2609   0.03588639    4368.4007    175.62006 
  615800  0.066549176    4368.2556  0.027158716    4368.3825    175.62044 
  615900  0.068843713    4368.2604  0.033569412    4368.3971    175.62106 
  616000  0.078520484    4368.2592  0.042958907    4368.4198    175.62126 
  616100  0.072512891     4368.261  0.041662089    4368.4113    175.62085 
  616200  0.074062519     4368.268    0.0338754    4368.4128    175.62057 
  616300  0.073316173    4368.2635  0.039682571    4368.4131    175.62078 
  616400  0.081782888    4368.2665  0.035659307    4368.4248    175.62032 
  616500  0.073006831    4368.2668  0.035219643    4368.4114      175.621 
  616600  0.073772427    4368.2737  0.035778895      4368.42    175.62044 
  616700  0.075042116    4368.2631  0.031280912    4368.4068    175.61986 
  616800  0.069924304    4368.2658  0.045339819     4368.416    175.62018 
  616900  0.075162573    4368.2646  0.038758907     4368.416    175.62139 
  617000  0.071619978    4368.2615  0.038841009    4368.4077    175.62027 
  617100   0.08353502    4368.2688  0.031314625    4368.4253    175.62085 
  617200  0.071474429    4368.2571  0.036774149     4368.401    175.62048 
  617300  0.081583869    4368.2627  0.035919367    4368.4209    175.62004 
  617400  0.077213762    4368.2651  0.035944947    4368.4168    175.62132 
  617500  0.079718151     4368.269  0.036575365    4368.4251    175.62032 
  617600  0.076775748    4368.2716  0.041342335     4368.428    175.62064 
  617700  0.077472232    4368.2672  0.037634793     4368.421    175.62072 
  617800  0.085366753     4368.263  0.030094537     4368.421     175.6215 
  617900  0.091799371    4368.2681  0.045327025     4368.451    175.62102 
  618000  0.077669424    4368.2644  0.033986633    4368.4148    175.62035 
  618100  0.084076931    4368.2648  0.031348712    4368.4222    175.62033 
  618200  0.079017134    4368.2676  0.043524739    4368.4296    175.61988 
  618300  0.082664443    4368.2664  0.032129433    4368.4224    175.62053 
  618400  0.068457486    4368.2663  0.048013419    4368.4169    175.62032 
  618500  0.072162916    4368.2607  0.038007622    4368.4068    175.62118 
  618600  0.070532916     4368.265  0.037898351    4368.4086     175.6206 
  618700  0.077191008    4368.2652  0.032594741    4368.4134     175.6203 
  618800  0.072407624    4368.2571  0.038014025    4368.4036    175.61988 
  618900   0.07423012     4368.269  0.038035148    4368.4183     175.6203 
  619000  0.079677746    4368.2656  0.034667396    4368.4197    175.62056 
  619100  0.072131113    4368.2642  0.040756249    4368.4131    175.61974 
  619200  0.066356044    4368.2652  0.035158353    4368.3998    175.62146 
  619300  0.073729017    4368.2654  0.037027143     4368.413    175.62005 
  619400  0.067111061    4368.2662  0.035420498    4368.4022    175.62079 
  619500  0.079319606    4368.2668  0.031016055    4368.4167    175.62021 
  619600  0.066939965    4368.2684  0.035568928    4368.4043    175.62025 
  619700   0.06731177    4368.2712  0.036178324    4368.4083    175.62062 
  619800  0.066338751    4368.2602  0.033695909    4368.3933     175.6211 
  619900  0.081817903    4368.2681  0.036900999    4368.4277     175.6202 
  620000  0.077599587    4368.2667  0.039620499    4368.4227     175.6205 
  620100  0.077252821    4368.2677  0.035187897    4368.4187    175.62141 
  620200   0.07251696    4368.2693  0.041740403    4368.4197    175.62006 
  620300  0.073814587    4368.2648  0.037819943    4368.4133    175.62059 
  620400     0.080581     4368.266  0.033784972    4368.4205    175.62029 
  620500   0.08666402    4368.2648  0.040645369    4368.4354    175.62028 
  620600  0.092404111    4368.2644  0.036044724     4368.439    175.62031 
  620700  0.084843789    4368.2692  0.050901857    4368.4473    175.62008 
  620800  0.076818113    4368.2638   0.04105032      4368.42    175.62056 
  620900  0.077358789    4368.2653  0.041118632    4368.4223    175.62055 
  621000  0.070072842    4368.2694  0.043524381    4368.4179    175.61975 
  621100   0.08695408    4368.2664  0.034253529     4368.431    175.62092 
  621200  0.083234174    4368.2729  0.047440827    4368.4451    175.62011 
  621300  0.093353408    4368.2695  0.042580625     4368.452     175.6207 
  621400  0.090227371    4368.2622  0.051806742    4368.4492    175.61976 
  621500  0.088972381     4368.259  0.045215103    4368.4376    175.62119 
  621600   0.07301466    4368.2679  0.041207228    4368.4186    175.62022 
  621700  0.073447143    4368.2706  0.033778764    4368.4144    175.61981 
  621800  0.059861629    4368.2699  0.041423234     4368.401    175.62063 
  621900  0.077255053    4368.2638  0.042107003    4368.4217    175.62086 
  622000  0.075125941      4368.27   0.03250894    4368.4151    175.62059 
  622100  0.065561513    4368.2668  0.037568937    4368.4026    175.62069 
  622200  0.069277883    4368.2662  0.031159082    4368.4012    175.61972 
  622300  0.067371962    4368.2694  0.036009693    4368.4064    175.62025 
  622400  0.080627395    4368.2637   0.03153786    4368.4161    175.62101 
  622500  0.065094879    4368.2652  0.033157517    4368.3959    175.62048 
  622600  0.066931779    4368.2674  0.033726252    4368.4015    175.61994 
  622700  0.065626137    4368.2729  0.027433843    4368.3987    175.62107 
  622800   0.07434321    4368.2697   0.02803001    4368.4091    175.62057 
  622900  0.074799662    4368.2652  0.037231246    4368.4145    175.61974 
  623000  0.075376789    4368.2673  0.043281802    4368.4235    175.61969 
  623100  0.070870947    4368.2662  0.031033884    4368.4035    175.62114 
  623200  0.072381071    4368.2683  0.033055764    4368.4098    175.62063 
  623300  0.073878061    4368.2675  0.032921005    4368.4112    175.62084 
  623400  0.071766462     4368.267  0.037297397    4368.4119    175.62092 
  623500  0.071765013    4368.2701  0.040205571    4368.4178    175.62121 
  623600  0.073580767    4368.2642  0.034345712    4368.4088    175.62059 
  623700  0.075922347    4368.2663  0.030928913     4368.411    175.62067 
  623800  0.081429557    4368.2585  0.040305428    4368.4208    175.62016 
  623900  0.069899783    4368.2665  0.043544613    4368.4148    175.62017 
  624000   0.06839711    4368.2621  0.045604767    4368.4102     175.6213 
  624100  0.065902179     4368.266   0.04208615    4368.4069    175.62019 
  624200  0.072669418    4368.2684  0.037828884    4368.4151    175.62051 
  624300  0.078169253    4368.2648  0.037372455    4368.4193    175.61994 
  624400  0.071279729    4368.2637   0.03343298    4368.4039    175.62109 
  624500  0.067063135    4368.2663  0.034070813    4368.4009    175.62018 
  624600    0.0678955    4368.2667  0.037641796    4368.4061     175.6205 
  624700  0.067431735    4368.2666  0.035371647    4368.4031     175.6206 
  624800  0.079871763    4368.2524  0.033749982    4368.4058    175.62084 
  624900  0.071441124    4368.2685  0.043661555    4368.4193    175.62232 
  625000   0.07273153    4368.2679  0.037620954    4368.4145    175.62042 
  625100  0.082685099      4368.27  0.036023459    4368.4299    175.62081 
  625200   0.08197331    4368.2717  0.042275926    4368.4369    175.62173 
  625300  0.080904567    4368.2596  0.044749264    4368.4256    175.62152 
  625400  0.084605216    4368.2658  0.037399901      4368.43    175.62152 
  625500  0.077727792    4368.2587  0.037121657    4368.4124    175.62162 
  625600  0.083657416    4368.2608  0.035243674    4368.4214    175.62178 
  625700  0.075217603    4368.2554  0.035951923    4368.4041    175.62032 
  625800  0.081904374    4368.2672  0.031575778    4368.4215     175.6206 
  625900  0.075850726    4368.2656  0.040707269      4368.42    175.62136 
  626000  0.070819378    4368.2589  0.042608416    4368.4077    175.62083 
  626100  0.062145666    4368.2652  0.029821928    4368.3882    175.62108 
  626200  0.066653741    4368.2617  0.031518109    4368.3932     175.6217 
  626300  0.070341319    4368.2657  0.048893325      4368.42    175.62056 
  626400  0.073235579     4368.262  0.040130482    4368.4119    175.62031 
  626500  0.075047441     4368.259  0.039308541    4368.4108     175.6206 
  626600  0.074812548    4368.2559   0.04759766    4368.4157    175.62015 
  626700  0.076955343    4368.2614  0.044944977    4368.4217    175.62103 
  626800   0.06888079    4368.2606  0.039686822    4368.4035    175.61998 
  626900  0.073350459    4368.2635  0.036884769    4368.4103    175.62009 
  627000  0.072620325    4368.2625  0.037629525     4368.409    175.62034 
  627100  0.065959088    4368.2645  0.035507715    4368.3989    175.61958 
  627200  0.068354477    4368.2613  0.032394382    4368.3961    175.62029 
  627300  0.075673922    4368.2604  0.032738474    4368.4065    175.62098 
  627400  0.077508708    4368.2662  0.033938175    4368.4164    175.62089 
  627500  0.071462658    4368.2608  0.033080535     4368.401    175.62097 
  627600  0.069022699    4368.2696  0.040141631    4368.4132    175.62128 
  627700  0.079995012    4368.2677  0.038578862    4368.4262    175.61995 
  627800  0.077492915    4368.2621  0.038352734    4368.4166    175.62157 
  627900  0.093298312    4368.2667  0.041807777    4368.4484    175.62035 
  628000  0.076816435     4368.265  0.047866261     4368.428    175.62091 
  628100  0.074999996    4368.2712  0.044294224    4368.4279    175.62026 
  628200  0.084355737    4368.2733  0.033084543    4368.4328    175.62045 
  628300   0.08876578    4368.2678  0.042198415    4368.4431    175.62067 
  628400   0.08627801    4368.2696  0.030730211    4368.4297    175.62118 
  628500  0.079973897    4368.2651  0.034612497    4368.4196    175.62139 
  628600  0.078044006    4368.2686  0.038687596    4368.4243    175.62082 
  628700  0.079579953    4368.2699  0.036761642    4368.4259    175.62032 
  628800   0.06883414    4368.2691  0.052687913     4368.425    175.61978 
  628900   0.08206071    4368.2701  0.038550665    4368.4317    175.62077 
  629000  0.069481889    4368.2699  0.048935892     4368.423    175.62087 
  629100  0.075197572    4368.2648  0.039970105    4368.4175    175.62048 
  629200  0.066795015    4368.2698  0.043557087    4368.4134    175.62027 
  629300  0.069822272    4368.2658  0.033348622    4368.4038    175.61963 
  629400  0.064447239    4368.2714  0.031653185    4368.3997    175.62033 
  629500  0.073329891    4368.2729  0.041474431    4368.4243    175.62012 
  629600  0.073930852    4368.2699  0.035206614     4368.416    175.62172 
  629700  0.071328299    4368.2748  0.034135465    4368.4159    175.62101 
  629800  0.063782773     4368.268  0.040921819    4368.4045    175.62037 
  629900  0.075788794    4368.2727  0.035290495    4368.4216     175.6208 
  630000  0.074745101    4368.2624  0.036126855    4368.4105    175.62038 
  630100  0.076408475    4368.2627  0.031678991    4368.4089    175.62071 
  630200  0.078003698    4368.2685  0.032008536    4368.4174    175.62104 
  630300   0.07567469     4368.268  0.041337227    4368.4227     175.6206 
  630400  0.088997533    4368.2675  0.042847014    4368.4437    175.62071 
  630500  0.094838212    4368.2681  0.047394449    4368.4576    175.62053 
  630600  0.086000747     4368.266  0.036533242    4368.4314    175.62083 
  630700  0.083819757    4368.2633  0.042407528    4368.4314    175.62001 
  630800  0.075404966    4368.2566  0.040588611    4368.4102    175.62058 
  630900  0.073302608    4368.2716  0.036698923    4368.4182    175.62005 
  631000  0.060528025    4368.2707  0.036148864    4368.3976    175.61949 
  631100  0.061092111    4368.2711  0.036132482    4368.3988    175.62004 
  631200  0.068831712    4368.2727  0.035931103    4368.4118    175.61982 
  631300  0.076040969    4368.2655  0.036811389    4368.4163    175.62012 
  631400  0.070276327    4368.2701  0.035889496    4368.4114    175.62107 
  631500  0.082044982     4368.272  0.033990905     4368.429    175.62038 
  631600  0.071495763    4368.2681  0.032231516    4368.4074    175.62067 
  631700  0.070307652    4368.2642  0.031013888    4368.4006     175.6203 
  631800  0.073333405    4368.2704  0.037177156    4368.4175    175.62058 
  631900  0.080167412    4368.2663  0.046582009     4368.433    175.62098 
  632000  0.079783591     4368.266  0.037835951    4368.4235    175.62045 
  632100    0.0705485    4368.2625  0.047408428    4368.4157    175.62001 
  632200  0.077589852     4368.266  0.043894916    4368.4262    175.61968 
  632300   0.08128645    4368.2704  0.039590638    4368.4319    175.62065 
  632400  0.079049578    4368.2641  0.047349296      4368.43    175.62081 
  632500  0.075315118    4368.2657  0.044604815    4368.4232    175.62066 
  632600  0.075884619    4368.2692  0.037327272    4368.4202    175.62087 
  632700  0.070512769    4368.2649  0.041051956    4368.4116    175.62039 
  632800  0.073546876    4368.2641  0.040392889    4368.4148    175.62018 
  632900  0.082218923    4368.2666  0.038955885    4368.4288    175.62174 
  633000  0.073772412    4368.2712  0.041388188    4368.4232    175.62014 
  633100  0.071454439    4368.2698  0.029056391    4368.4059     175.6212 
  633200  0.064187742    4368.2684  0.039248878    4368.4039    175.62005 
  633300  0.070274007    4368.2697  0.037355503    4368.4124    175.62082 
  633400  0.083741516    4368.2694  0.040011805    4368.4349    175.62089 
  633500  0.072240635    4368.2683  0.043898153    4368.4205    175.62062 
  633600  0.091800628     4368.268   0.02815939    4368.4338    175.62158 
  633700   0.08474997    4368.2675   0.03773659    4368.4323    175.62022 
  633800  0.074775862    4368.2722  0.040339297    4368.4246    175.62079 
  633900   0.06830108    4368.2702  0.040158698    4368.4128    175.62009 
  634000  0.081133391    4368.2731  0.046601183    4368.4413    175.62083 
  634100  0.077334819    4368.2714  0.047926288    4368.4353    175.62101 
  634200  0.071036386    4368.2714  0.037181048     4368.415    175.61958 
  634300  0.076139935    4368.2698  0.038787502    4368.4227    175.62023 
  634400  0.072461003     4368.265  0.041029923    4368.4146    175.61986 
  634500  0.076330299    4368.2671  0.038691436    4368.4202    175.62043 
  634600  0.075121315    4368.2631  0.032218991    4368.4079    175.62083 
  634700  0.077965285    4368.2682   0.04637165    4368.4314    175.61998 
  634800   0.08166862     4368.264  0.054334463    4368.4408    175.62041 
  634900   0.07938437    4368.2643  0.046340031    4368.4297    175.61995 
  635000  0.085420609    4368.2625  0.033075616    4368.4236    175.62142 
  635100  0.077978766    4368.2719  0.036595914    4368.4254    175.62114 
  635200   0.07951459     4368.259  0.048916078    4368.4271    175.62087 
  635300  0.081383032    4368.2721  0.042487841    4368.4366    175.62056 
  635400  0.071624493    4368.2616  0.038934521    4368.4079    175.62083 
  635500   0.07201938    4368.2653  0.045525291    4368.4188    175.61954 
  635600  0.077085471    4368.2675  0.040727904    4368.4238    175.62047 
  635700  0.070992866    4368.2676  0.043630737    4368.4176    175.61961 
  635800  0.077244016    4368.2744   0.04140289    4368.4315    175.62026 
  635900  0.067694544    4368.2659  0.041269668    4368.4086    175.62005 
  636000  0.069504257    4368.2698  0.033398028    4368.4074    175.62027 
  636100   0.07500648    4368.2654  0.033706772    4368.4115    175.62037 
  636200  0.068890449    4368.2613  0.040357383    4368.4049    175.61936 
  636300  0.072459334    4368.2645  0.032924771    4368.4061    175.62071 
  636400  0.072407979    4368.2621  0.032064169    4368.4027    175.62089 
  636500  0.070465193     4368.264  0.029318106    4368.3989    175.61991 
  636600  0.068009746    4368.2716  0.031533065    4368.4051    175.62116 
  636700  0.069681832    4368.2586  0.031809024    4368.3948    175.62058 
  636800  0.070991666    4368.2624  0.038703258    4368.4075    175.62099 
  636900  0.074925659    4368.2695    0.0451166    4368.4269    175.62131 
  637000  0.086823815     4368.269  0.046236314    4368.4454    175.62133 
  637100  0.079681453    4368.2583  0.039925777    4368.4177    175.62151 
  637200  0.073990218    4368.2692  0.038866595    4368.4189     175.6207 
  637300  0.074459297    4368.2695  0.029819448    4368.4109    175.62089 
  637400  0.070990226    4368.2624  0.031066833    4368.3998    175.62018 
  637500  0.073683135    4368.2678  0.041602828    4368.4198    175.62142 
  637600  0.083012454    4368.2653   0.03985249    4368.4296    175.62083 
  637700  0.079108363    4368.2669  0.041604646    4368.4271    175.62085 
  637800  0.074695185    4368.2668  0.036939139    4368.4157    175.62048 
  637900  0.081096337    4368.2684  0.037903883    4368.4279    175.62118 
  638000  0.076598427    4368.2666   0.03146974    4368.4129     175.6212 
  638100   0.06433913    4368.2674  0.051855053    4368.4157    175.61989 
  638200  0.079798181    4368.2608  0.035555393     4368.416    175.62145 
  638300  0.077304084    4368.2676  0.044390725    4368.4278    175.62064 
  638400  0.080874524    4368.2662  0.041025151    4368.4285    175.61982 
  638500  0.065688349    4368.2662  0.040058073    4368.4047    175.62132 
  638600  0.066974481    4368.2645  0.041414597    4368.4063    175.62024 
  638700  0.070775573    4368.2677  0.043148105     4368.417    175.62003 
  638800  0.078892178     4368.268  0.028892984    4368.4152    175.62079 
  638900  0.076956518      4368.27  0.038227632    4368.4236    175.62037 
  639000   0.08015672    4368.2722  0.032908477    4368.4252    175.62075 
  639100  0.075796588    4368.2707  0.030050342    4368.4144    175.62096 
  639200  0.074612095    4368.2633  0.040794808     4368.416    175.62037 
  639300  0.072837664    4368.2656  0.039641986    4368.4145    175.62072 
  639400  0.068458925    4368.2705  0.033641202    4368.4068    175.62077 
  639500  0.075260459    4368.2701  0.035009905    4368.4179    175.62057 
  639600  0.078947457    4368.2686  0.034959635    4368.4219     175.6206 
  639700  0.067474324    4368.2671  0.037841991    4368.4061    175.62054 
  639800  0.078273642    4368.2693  0.056775463    4368.4434    175.62047 
  639900  0.078343871     4368.269  0.042685071    4368.4291     175.6202 
  640000  0.070527653    4368.2729    0.0361158    4368.4147     175.6198 
  640100  0.075010407    4368.2659  0.038675353     4368.417    175.62089 
  640200  0.072377388     4368.266  0.032883253    4368.4073    175.62014 
  640300  0.063824897    4368.2711  0.034671649    4368.4014    175.62087 
  640400  0.063173307    4368.2614  0.033387508    4368.3894    175.62018 
  640500  0.070295554    4368.2665  0.028380055    4368.4002    175.62041 
  640600  0.077725412    4368.2661  0.030768659    4368.4134    175.61988 
  640700  0.077509029    4368.2661  0.038628969    4368.4209    175.62051 
  640800   0.08397218    4368.2628  0.041417644      4368.43     175.6211 
  640900  0.083775474    4368.2693  0.039451634    4368.4344    175.62029 
  641000   0.08265483    4368.2696  0.033171384    4368.4267    175.62112 
  641100  0.076111092    4368.2677   0.04570164    4368.4275    175.62119 
  641200  0.076649821    4368.2682  0.032579592    4368.4156    175.62015 
  641300   0.07373399    4368.2681    0.0353315     4368.414    175.62136 
  641400  0.074320065    4368.2648  0.039653745    4368.4159    175.62048 
  641500  0.081028408    4368.2665   0.04732246    4368.4353     175.6205 
  641600  0.071763026    4368.2652  0.036702118    4368.4094    175.62122 
  641700   0.08375562    4368.2579  0.040602975    4368.4241     175.6212 
  641800  0.083629923    4368.2553  0.042221171    4368.4229    175.62079 
  641900  0.082647825    4368.2561  0.038072905    4368.4181    175.62115 
  642000  0.083632656    4368.2665   0.03486801    4368.4267    175.62081 
  642100   0.07918772    4368.2669  0.052256578    4368.4378    175.62224 
  642200  0.081576743    4368.2673  0.039732582    4368.4293    175.62139 
  642300  0.085148939    4368.2695  0.035549922    4368.4326    175.62025 
  642400  0.085126281    4368.2691  0.031192455    4368.4279    175.62162 
  642500  0.068490581     4368.265  0.034263845     4368.402    175.61971 
  642600  0.067879747    4368.2589  0.046013175    4368.4067     175.6214 
  642700  0.078585098    4368.2608  0.043299606    4368.4219    175.62016 
  642800  0.082533693    4368.2671  0.044035594    4368.4348    175.62132 
  642900  0.072148714    4368.2674  0.036609132    4368.4122    175.62095 
  643000  0.069888036    4368.2703  0.035146894    4368.4102    175.62048 
  643100  0.074196784    4368.2631  0.028668604     4368.403    175.62137 
  643200  0.064206181    4368.2631   0.03156666    4368.3909    175.62061 
  643300  0.060781954    4368.2635  0.032023858    4368.3866    175.62031 
  643400  0.064724001    4368.2673  0.040001778    4368.4043    175.62079 
  643500  0.070680182     4368.272  0.035449976    4368.4133    175.62039 
  643600  0.065898496    4368.2673    0.0397819    4368.4059    175.62122 
  643700  0.067252581    4368.2675  0.041171877    4368.4095    175.62039 
  643800  0.078813481    4368.2611  0.038027242    4368.4173    175.61996 
  643900  0.087890755    4368.2703  0.030866126    4368.4329    175.62015 
  644000  0.089719343    4368.2629  0.031023276    4368.4284    175.62112 
  644100  0.080202605    4368.2628    0.0360768    4368.4191    175.62131 
  644200  0.077497182    4368.2651  0.043375638    4368.4246    175.62037 
  644300  0.076009022    4368.2628  0.036165838    4368.4129    175.62037 
  644400  0.076314337    4368.2659  0.040058474    4368.4204    175.62073 
  644500  0.078991708     4368.268  0.040262302    4368.4266    175.62035 
  644600  0.066581141    4368.2702  0.036107415    4368.4061    175.62158 
  644700  0.079335374    4368.2683  0.036398001    4368.4236    175.62084 
  644800  0.073962123    4368.2617  0.041058575    4368.4136     175.6214 
  644900  0.071203169    4368.2649  0.031475093    4368.4031    175.62046 
  645000  0.066601487    4368.2701  0.035995238    4368.4059    175.62123 
  645100  0.074773786    4368.2698  0.027456845    4368.4094    175.62112 
  645200  0.069170329    4368.2649  0.040265893    4368.4088    175.62029 
  645300  0.071242548    4368.2722  0.024312796    4368.4033    175.62139 
  645400  0.076276745    4368.2645  0.033785606    4368.4127    175.62042 
  645500   0.07754749    4368.2667  0.032906905    4368.4159    175.62041 
  645600  0.070699923    4368.2698   0.04032122    4368.4161    175.61953 
  645700  0.064701664    4368.2687   0.03532858    4368.4011    175.62102 
  645800  0.067518381    4368.2702  0.043378047    4368.4148     175.6212 
  645900  0.068372051    4368.2715  0.040022646     4368.414    175.62121 
  646000  0.064319293    4368.2737  0.041056925    4368.4112    175.62054 
  646100  0.064293077     4368.267  0.039505134    4368.4029    175.62056 
  646200  0.070972444    4368.2681  0.046394018    4368.4209    175.61986 
  646300  0.062628862    4368.2707  0.050046155    4368.4146     175.6209 
  646400  0.076462285    4368.2712  0.030353162    4368.4162    175.62017 
  646500  0.073190415     4368.269  0.043823983    4368.4225     175.6215 
  646600  0.086314226    4368.2657  0.032678003    4368.4278    175.62022 
  646700  0.076453224    4368.2703  0.031687886    4368.4166    175.62105 
  646800  0.073385217    4368.2646  0.037085738    4368.4117    175.61991 
  646900  0.083699969    4368.2684  0.037154869     4368.431    175.62029 
  647000  0.076298944    4368.2678  0.044348092    4368.4265    175.62075 
  647100   0.06968634    4368.2689  0.036622528      4368.41    175.62051 
  647200  0.073782349    4368.2693  0.037428303    4368.4173    175.62063 
  647300  0.073111743    4368.2703  0.041929548    4368.4218    175.62066 
  647400  0.083615137    4368.2702  0.035545605     4368.431    175.62111 
  647500   0.07717122    4368.2709  0.031667093    4368.4182    175.62134 
  647600  0.076216378    4368.2647   0.03488773    4368.4138     175.6198 
  647700  0.072077164    4368.2682  0.040275156    4368.4165    175.62083 
  647800  0.069276353    4368.2701   0.03554701    4368.4095    175.62184 
  647900  0.069183173     4368.267  0.037196346    4368.4079    175.61995 
  648000  0.081078072    4368.2705  0.043763856    4368.4357    175.62068 
  648100  0.075922105    4368.2701  0.039455374    4368.4233    175.62117 
  648200  0.083838964    4368.2678  0.040909693    4368.4343    175.62093 
  648300  0.079204449    4368.2615  0.044327202    4368.4246    175.62113 
  648400  0.074317497    4368.2704  0.036266672    4368.4181    175.62004 
  648500  0.073899517    4368.2622  0.038549072    4368.4115    175.62112 
  648600  0.078839917     4368.265   0.03324668    4368.4165    175.62053 
  648700  0.083464735    4368.2648  0.033386121    4368.4233    175.62057 
  648800  0.080303493    4368.2693  0.034213366    4368.4238    175.62051 
  648900   0.06489753    4368.2673  0.034395889     4368.399    175.62118 
  649000  0.071554693    4368.2671  0.039075063    4368.4135    175.62045 
  649100  0.076935464    4368.2689  0.039398243    4368.4236    175.62065 
  649200  0.077397612    4368.2703  0.033354113    4368.4197    175.62094 
  649300  0.079610736    4368.2655  0.031786269    4368.4166    175.62097 
  649400   0.07778147    4368.2676  0.044855328     4368.429    175.61988 
  649500  0.080805923    4368.2683   0.04576904    4368.4352    175.62055 
  649600  0.082384288    4368.2672  0.033954517    4368.4246    175.62079 
  649700  0.079267388    4368.2719  0.043129585    4368.4338    175.61975 
  649800  0.073816111    4368.2661  0.035590807    4368.4124    175.62024 
  649900  0.077355019    4368.2637   0.03862333    4368.4183    175.62089 
  650000  0.074446715    4368.2658  0.042304217    4368.4196     175.6205 
  650100  0.070748515    4368.2626  0.041894683    4368.4105    175.62068 
  650200  0.078214323    4368.2715  0.034839876    4368.4235    175.62055 
  650300  0.068773144    4368.2618  0.041611632    4368.4065    175.62082 
  650400  0.072872113    4368.2664  0.047440516    4368.4231    175.62023 
  650500  0.078138843    4368.2691  0.032522379    4368.4187    175.62049 
  650600  0.078200613     4368.262  0.040168291    4368.4193    175.61909 
  650700  0.081294844    4368.2668  0.039048996    4368.4277    175.62042 
  650800  0.080713141     4368.267  0.034278508    4368.4222    175.62172 
  650900  0.077249844    4368.2675  0.030390325    4368.4137    175.62121 
  651000   0.07317533    4368.2692  0.041986632    4368.4209    175.62071 
  651100  0.081022419    4368.2682  0.032156311    4368.4218    175.62053 
  651200  0.083623326     4368.265  0.039538007    4368.4299    175.62054 
  651300  0.085166345    4368.2642  0.046334143    4368.4382    175.62056 
  651400   0.06800104    4368.2653  0.047081957    4368.4143    175.62025 
  651500   0.07189764    4368.2679  0.041556546    4368.4172    175.62123 
  651600  0.073189177    4368.2612  0.042111733     4368.413    175.61996 
  651700  0.079582394    4368.2632  0.034431253    4368.4169    175.62083 
  651800  0.075002857    4368.2672  0.046282936    4368.4259    175.62002 
  651900  0.069558981    4368.2598  0.037247873    4368.4013    175.62132 
  652000   0.07767926    4368.2687  0.034879951      4368.42    175.62182 
  652100  0.074146893    4368.2625  0.044029411    4368.4177    175.61987 
  652200  0.065538058    4368.2649  0.049704395    4368.4128    175.62024 
  652300  0.076631759    4368.2632  0.036096385    4368.4142    175.62041 
  652400  0.083668629     4368.264  0.034798802    4368.4243    175.62018 
  652500  0.077379634    4368.2702  0.040109142    4368.4263    175.61997 
  652600  0.076390676    4368.2713  0.049641042    4368.4355    175.62058 
  652700  0.079215057    4368.2631  0.047614662    4368.4294    175.61965 
  652800  0.088133233    4368.2668  0.039821428    4368.4387    175.61946 
  652900  0.074469303    4368.2664  0.042487998    4368.4205    175.62035 
  653000  0.082850137    4368.2658  0.034097707    4368.4241    175.62088 
  653100  0.069860405    4368.2681  0.041493033    4368.4143    175.62109 
  653200  0.069553587    4368.2733  0.038152532    4368.4157    175.62048 
  653300  0.083059416    4368.2721  0.030894454    4368.4274    175.62099 
  653400  0.073631834    4368.2673  0.036090204    4368.4137    175.62018 
  653500  0.065112746    4368.2668  0.043376247    4368.4078    175.62026 
  653600  0.075195316    4368.2719   0.03550448    4368.4201    175.61974 
  653700   0.07021417    4368.2652  0.030165282    4368.4007    175.62026 
  653800   0.07026187    4368.2654  0.042434514    4368.4132    175.62179 
  653900  0.077020369    4368.2738  0.034419693    4368.4237    175.62121 
  654000  0.073375729    4368.2675  0.034717906    4368.4122    175.62043 
  654100  0.075649795    4368.2714  0.029686766    4368.4145    175.62047 
  654200  0.066138126    4368.2728  0.031810438    4368.4037    175.61964 
  654300  0.058135273    4368.2627  0.034446792    4368.3843    175.62134 
  654400  0.065950217     4368.268   0.02925131    4368.3961     175.6206 
  654500    0.0696238    4368.2698  0.030895232     4368.405    175.62064 
  654600  0.072799275    4368.2676  0.037407094    4368.4141    175.62029 
  654700  0.066237807    4368.2709  0.031701823    4368.4019    175.62094 
  654800  0.083131513    4368.2714  0.035898302    4368.4319    175.62007 
  654900  0.075640951    4368.2642  0.035575776    4368.4132    175.62139 
  655000  0.071581043    4368.2632  0.041863979    4368.4123     175.6203 
  655100   0.06675926     4368.267  0.047841229    4368.4149    175.61956 
  655200  0.060448872     4368.272  0.040264846    4368.4029    175.61933 
  655300  0.070424253    4368.2707  0.028637967    4368.4049    175.62066 
  655400  0.069259552     4368.267  0.036918596    4368.4078    175.62042 
  655500  0.066540551    4368.2673  0.035049198    4368.4021     175.6209 
  655600  0.076560007    4368.2719  0.032935729    4368.4196    175.62011 
  655700  0.078626744    4368.2617  0.028333442    4368.4079    175.62076 
  655800  0.075979597    4368.2677  0.035243002    4368.4168    175.62045 
  655900   0.07410712    4368.2706  0.029446148    4368.4111    175.62056 
  656000  0.066243442    4368.2699  0.035334384    4368.4045    175.61937 
  656100  0.064498715    4368.2687  0.038194802    4368.4035     175.6203 
  656200  0.076171607    4368.2655  0.038989423    4368.4187    175.62007 
  656300  0.080032074    4368.2689  0.044312451    4368.4331    175.61974 
  656400  0.082806726    4368.2689  0.051082211    4368.4441    175.61994 
  656500  0.084405474    4368.2685  0.049718158    4368.4447    175.62043 
  656600  0.082485655    4368.2722  0.042378668    4368.4382    175.62005 
  656700  0.071958367     4368.269   0.03556803    4368.4124    175.61956 
  656800  0.068583187    4368.2629  0.031327024     4368.397    175.62063 
  656900  0.075596745    4368.2643  0.043968624    4368.4216    175.62003 
  657000   0.08916121    4368.2655  0.045311397    4368.4445    175.62041 
  657100  0.074190337    4368.2608  0.048229499    4368.4202    175.62056 
  657200   0.07783308    4368.2646  0.037716598     4368.419    175.62061 
  657300  0.080151291    4368.2715  0.040115384    4368.4317    175.62094 
  657400  0.078245963    4368.2633  0.043236917    4368.4238    175.62039 
  657500  0.080413063     4368.276  0.049974043    4368.4465    175.61988 
  657600  0.072394618    4368.2717  0.043598974    4368.4238    175.62092 
  657700  0.070052092    4368.2705  0.045194511    4368.4207    175.62029 
  657800  0.081366443    4368.2721  0.041632472    4368.4357    175.61971 
  657900  0.082243705    4368.2748  0.036086984    4368.4342     175.6205 
  658000  0.069415091    4368.2617  0.051612361    4368.4174    175.61909 
  658100  0.072560465    4368.2657    0.0478478    4368.4223    175.62055 
  658200  0.073460504    4368.2675   0.04096496    4368.4186     175.6206 
  658300  0.068127944    4368.2681  0.042690005    4368.4129    175.61997 
  658400  0.082743158    4368.2679  0.034674578    4368.4266    175.62065 
  658500  0.077040882    4368.2705  0.038636348    4368.4246    175.62054 
  658600  0.078255089     4368.269   0.03368056    4368.4199    175.62039 
  658700  0.077187649    4368.2731   0.04474859    4368.4335    175.62018 
  658800  0.074899301     4368.271  0.035598736    4368.4188    175.62076 
  658900  0.075885458    4368.2622  0.039157111    4368.4151    175.62012 
  659000   0.08222669    4368.2719  0.037086738    4368.4322    175.61937 
  659100  0.074482225    4368.2696   0.03873229      4368.42    175.62017 
  659200  0.084973844    4368.2662  0.037563124    4368.4312    175.61981 
  659300  0.084427169     4368.269  0.044417024      4368.44    175.61994 
  659400  0.079569517    4368.2703  0.047052926    4368.4366    175.62014 
  659500  0.080867726    4368.2719  0.040710374    4368.4338    175.62041 
  659600  0.073481865    4368.2638  0.040856435    4368.4148    175.62052 
  659700  0.064792683     4368.268  0.033077264    4368.3982     175.6204 
  659800  0.069372663    4368.2688  0.034577433    4368.4074    175.62091 
  659900  0.074869191    4368.2721  0.033184431    4368.4175    175.61996 
  660000  0.079878199    4368.2702  0.033712412    4368.4237    175.61992 
  660100  0.069314462    4368.2675  0.038872535    4368.4103     175.6199 
  660200  0.075255115    4368.2678  0.027513498    4368.4082    175.62064 
  660300  0.070806003     4368.271  0.033542668    4368.4106    175.61992 
  660400  0.081222111    4368.2656   0.03371115     4368.421    175.62156 
  660500   0.07998199    4368.2663  0.030631586    4368.4168    175.62105 
  660600  0.088095665    4368.2687  0.038212596    4368.4389    175.62135 
  660700   0.07855056    4368.2673  0.028451855    4368.4135    175.62094 
  660800  0.065162515    4368.2671  0.033262669     4368.398    175.62028 
  660900  0.071358489    4368.2631  0.030743416    4368.4008    175.62079 
  661000  0.086555287    4368.2678  0.024927979    4368.4225    175.62065 
  661100  0.079348036    4368.2697  0.030955821    4368.4196    175.62089 
  661200  0.073615848    4368.2657  0.036664401    4368.4128    175.62004 
  661300  0.069753807    4368.2689  0.031547289     4368.405    175.62049 
  661400  0.079411822    4368.2631  0.026136585    4368.4083     175.6212 
  661500  0.072589918    4368.2672  0.031659611    4368.4077    175.62105 
  661600  0.073722007    4368.2715  0.033450222    4368.4154    175.62014 
  661700  0.073535177    4368.2702  0.044090405    4368.4246    175.62038 
  661800  0.073237425    4368.2689  0.034253782    4368.4129    175.62045 
  661900  0.076939576    4368.2668  0.032207619    4368.4144    175.62079 
  662000  0.068151023    4368.2662  0.035071303    4368.4035    175.61996 
  662100  0.080104191    4368.2692  0.036413991    4368.4257    175.62106 
  662200  0.076326229    4368.2718  0.050199861    4368.4364    175.61985 
  662300  0.070078493    4368.2697  0.042332442     4368.417    175.61969 
  662400  0.086177443    4368.2612   0.04283415    4368.4332    175.62002 
  662500  0.081928141    4368.2706  0.040436573    4368.4339    175.62076 
  662600  0.073637731    4368.2669  0.032144694    4368.4094    175.62109 
  662700  0.068113605     4368.272  0.034962337    4368.4091     175.6201 
  662800  0.068222059    4368.2689  0.037596924    4368.4087    175.62089 
  662900   0.07837102    4368.2686  0.034848197    4368.4209    175.62017 
  663000  0.079360028    4368.2692  0.038434341    4368.4266    175.61987 
  663100  0.084397005    4368.2689  0.033466464    4368.4289    175.62058 
  663200  0.086223437    4368.2668  0.039665338    4368.4357    175.61958 
  663300  0.081959823    4368.2736  0.038734904    4368.4351    175.61997 
  663400  0.070162641    4368.2736  0.044859921    4368.4237    175.61974 
  663500  0.082714469    4368.2743  0.038629476    4368.4369    175.62088 
  663600  0.076951378    4368.2725  0.040557835    4368.4284    175.62034 
  663700  0.079146235    4368.2706  0.040065778    4368.4293    175.61988 
  663800  0.076490912    4368.2581  0.035525902    4368.4083    175.62077 
  663900  0.079037056    4368.2734  0.042407655    4368.4343     175.6196 
  664000  0.076734527    4368.2712  0.045081837    4368.4313    175.61982 
  664100  0.080676224      4368.27  0.034509073    4368.4254    175.61994 
  664200  0.075260848    4368.2691  0.040768424    4368.4226     175.6209 
  664300  0.079468466    4368.2745  0.041284462    4368.4349    175.62182 
  664400  0.076810835    4368.2755  0.041742774    4368.4324    175.62015 
  664500  0.065284973    4368.2685   0.04496866    4368.4113    175.62001 
  664600  0.070659949    4368.2663  0.045918302    4368.4181    175.62007 
  664700  0.071599946    4368.2699  0.047713694    4368.4249     175.6205 
  664800  0.081403768    4368.2704  0.043011989    4368.4355    175.62042 
  664900  0.075026629    4368.2739  0.029586008    4368.4159    175.62105 
  665000  0.068632948    4368.2705  0.031997047    4368.4054     175.6208 
  665100  0.067221182    4368.2679  0.037121227    4368.4058    175.62009 
  665200  0.067285278    4368.2703  0.038468211    4368.4096    175.61881 
  665300  0.073324048    4368.2697  0.033297849    4368.4129    175.62083 
  665400  0.078214855    4368.2696  0.038586509    4368.4254    175.62063 
  665500   0.06692976    4368.2718   0.04150222    4368.4136    175.62018 
  665600   0.07783393    4368.2719  0.039048442    4368.4276    175.62041 
  665700  0.073287563    4368.2667  0.043624099    4368.4202    175.62023 
  665800   0.07569793    4368.2678  0.043947051    4368.4252    175.62058 
  665900  0.076538342    4368.2645  0.037796633     4368.417    175.62045 
  666000  0.077002384    4368.2667  0.027242079    4368.4093    175.62056 
  666100  0.072452049    4368.2703   0.03565317    4368.4146     175.6199 
  666200  0.075328369    4368.2731  0.038550676    4368.4245    175.62139 
  666300   0.07345455    4368.2696  0.040577944    4368.4203    175.62051 
  666400  0.074327746    4368.2691  0.043798164    4368.4243    175.61953 
  666500  0.085749333    4368.2715  0.039785078    4368.4398    175.62001 
  666600  0.077605426    4368.2709  0.037836507     4368.425    175.62083 
  666700  0.081350223    4368.2688  0.045941211    4368.4367    175.62023 
  666800    0.0770406    4368.2696  0.049834353    4368.4349    175.61973 
  666900  0.080355741    4368.2684  0.039277089    4368.4282    175.61947 
  667000  0.063629973    4368.2673  0.042688835    4368.4053    175.62042 
  667100  0.064556233    4368.2729  0.041749936    4368.4114    175.62009 
  667200  0.065217478    4368.2704  0.035474098    4368.4037    175.62065 
  667300  0.073205752    4368.2679  0.037002176    4368.4146    175.62127 
  667400  0.072287862    4368.2699  0.034932188    4368.4132    175.62134 
  667500  0.071547937    4368.2626  0.035702172    4368.4055    175.62031 
  667600  0.074251854    4368.2714  0.041254143    4368.4239    175.62021 
  667700  0.082532454    4368.2732  0.032053865     4368.429    175.62089 
  667800  0.068422412    4368.2695  0.035428189    4368.4075    175.62011 
  667900  0.079666877    4368.2715  0.031598929    4368.4225    175.61985 
  668000  0.079125306    4368.2683   0.03585871    4368.4228    175.62015 
  668100  0.076413013    4368.2661  0.044336658     4368.425    175.62029 
  668200  0.073123645    4368.2741  0.037165273    4368.4208    175.61961 
  668300  0.064904348    4368.2671  0.039601519     4368.404    175.62039 
  668400  0.066925293    4368.2736  0.038714918    4368.4126    175.61964 
  668500   0.06533146    4368.2704  0.046436743    4368.4148    175.61999 
  668600  0.071143355    4368.2665  0.042903134     4368.416    175.61969 
  668700  0.074299827    4368.2688   0.03983263      4368.42    175.61921 
  668800  0.075583088    4368.2676  0.038111778     4368.419    175.62067 
  668900  0.078734026    4368.2687  0.033471757    4368.4202    175.62133 
  669000  0.086780636    4368.2614  0.034314095    4368.4257    175.62045 
  669100  0.083242793     4368.268  0.030180941    4368.4229    175.62036 
  669200  0.078538251     4368.272  0.031488884    4368.4212     175.6203 
  669300  0.080240256    4368.2673  0.030151794    4368.4178    175.62147 
  669400  0.080145758    4368.2657   0.03504212    4368.4208    175.62004 
  669500  0.068994561    4368.2687  0.044604055    4368.4167    175.62076 
  669600  0.073487151    4368.2648   0.03389386    4368.4089    175.62112 
  669700  0.074115404    4368.2648  0.030864271    4368.4067    175.62071 
  669800  0.076890979    4368.2736  0.033706305    4368.4225    175.62119 
  669900  0.069242587    4368.2614  0.045033503    4368.4102    175.62071 
  670000  0.070713442    4368.2713  0.040774073     4368.418     175.6219 
  670100  0.079047679    4368.2712    0.0370755    4368.4267    175.62057 
  670200  0.074216661    4368.2693  0.039705532    4368.4202    175.62106 
  670300  0.076197434    4368.2663  0.038135034    4368.4187    175.62105 
  670400  0.082412008    4368.2674  0.034804353    4368.4258    175.62058 
  670500  0.081154316    4368.2628  0.049933781    4368.4344    175.62025 
  670600  0.077039133    4368.2674  0.040852111    4368.4237    175.62099 
  670700  0.066108317    4368.2674  0.038886776    4368.4054    175.61979 
  670800  0.070676108    4368.2697   0.03738017    4368.4131    175.61979 
  670900  0.065005888    4368.2694  0.045674108    4368.4125     175.6203 
  671000  0.066955548    4368.2644  0.042011338    4368.4068    175.62103 
  671100  0.076196024    4368.2662  0.036196941    4368.4166    175.62034 
  671200  0.070581512    4368.2706  0.039047488    4368.4155    175.62051 
  671300  0.077614268    4368.2677  0.038981213     4368.423    175.62045 
  671400    0.0663883    4368.2725  0.042774271    4368.4148    175.62129 
  671500  0.074574787    4368.2701  0.033532267    4368.4154    175.62178 
  671600  0.080584936    4368.2711  0.039719209    4368.4316    175.62016 
  671700  0.072436146    4368.2676  0.036563408    4368.4127    175.62003 
  671800  0.075515759    4368.2658  0.032100276    4368.4111     175.6199 
  671900   0.06752045    4368.2673   0.03748668     4368.406    175.62054 
  672000  0.067113587    4368.2699  0.049096888    4368.4196    175.61981 
  672100  0.068132944    4368.2678  0.039076849     4368.409    175.62104 
  672200   0.07032136    4368.2638  0.037597828    4368.4068    175.62146 
  672300  0.067324693    4368.2646  0.036519303     4368.402    175.62027 
  672400  0.074722164    4368.2652  0.030563056    4368.4078    175.62058 
  672500  0.075326723    4368.2692   0.03979981    4368.4219    175.62041 
  672600  0.080416914    4368.2682   0.03423321    4368.4229    175.62067 
  672700   0.07653382    4368.2581  0.032468926    4368.4053    175.62168 
  672800  0.078638179    4368.2622  0.030844474     4368.411    175.62097 
  672900  0.079438813    4368.2671  0.034901454    4368.4211    175.62123 
  673000  0.068773646    4368.2634   0.03364808    4368.4001    175.62067 
  673100   0.07228596    4368.2646  0.035267601    4368.4082    175.62056 
  673200  0.071952245    4368.2641  0.042492621    4368.4144    175.62083 
  673300  0.072506519    4368.2596   0.04258443    4368.4108    175.62059 
  673400  0.069866824    4368.2676  0.047247496    4368.4196    175.61961 
  673500  0.075019681    4368.2719  0.038851807    4368.4232    175.62118 
  673600  0.065524452    4368.2686  0.049474826    4368.4163    175.62046 
  673700  0.083118025     4368.268  0.043396577     4368.436    175.62045 
  673800  0.072178512    4368.2688  0.033837052    4368.4108    175.62165 
  673900  0.074266067    4368.2663  0.038883678    4368.4165    175.62076 
  674000  0.081079734    4368.2652  0.032574743    4368.4193    175.62041 
  674100  0.076701725     4368.265  0.042201574    4368.4222    175.62095 
  674200   0.08103388    4368.2688   0.03828474    4368.4285    175.61968 
  674300  0.080196079     4368.272  0.035898233    4368.4281    175.62016 
  674400  0.071816804    4368.2683  0.038129015    4368.4141    175.61961 
  674500  0.071130011    4368.2644  0.038203662    4368.4093    175.62058 
  674600  0.067459351     4368.261  0.034446315    4368.3966     175.6201 
  674700  0.066342692    4368.2632  0.042038516    4368.4047    175.62039 
  674800  0.071361454    4368.2596  0.036041551    4368.4026    175.62105 
  674900  0.077790899    4368.2654    0.0317484    4368.4137    175.62082 
  675000  0.081233449      4368.27  0.035414681    4368.4272    175.62153 
  675100  0.074626048    4368.2626  0.036983709    4368.4115    175.62136 
  675200  0.083179072    4368.2566  0.027656838    4368.4089    175.62158 
  675300  0.065880749    4368.2644  0.036984205    4368.4002    175.62126 
  675400  0.078138607     4368.263  0.028774816    4368.4089    175.62072 
  675500  0.086045445    4368.2653  0.038427068    4368.4327    175.62104 
  675600  0.086551295    4368.2567  0.028738357    4368.4152    175.62136 
  675700  0.067104469    4368.2604  0.033640029    4368.3946    175.62105 
  675800  0.057305353    4368.2684  0.034291565    4368.3886    175.62006 
  675900  0.067878431     4368.269   0.03983106    4368.4105    175.62052 
  676000  0.071710698    4368.2671  0.034015823    4368.4086    175.62008 
  676100  0.077329513    4368.2609  0.032448958    4368.4093    175.62006 
  676200  0.079468483    4368.2617  0.034905024    4368.4158    175.62102 
  676300  0.069356048     4368.262  0.046388188    4368.4124    175.62106 
  676400  0.065948838    4368.2614  0.034025712    4368.3943    175.62059 
  676500  0.066112676    4368.2616  0.037715972    4368.3984    175.62121 
  676600  0.069263472    4368.2649   0.04207037    4368.4108    175.62035 
  676700   0.07012723    4368.2563  0.044645977    4368.4061    175.62042 
  676800  0.074521877    4368.2617  0.030505618    4368.4039    175.62039 
  676900  0.062635717    4368.2648   0.03293265    4368.3916    175.61946 
  677000  0.073847951     4368.267  0.030422962    4368.4081    175.62141 
  677100  0.072551652    4368.2642  0.036275786    4368.4092    175.62107 
  677200  0.073806626     4368.264  0.038885657    4368.4135    175.62033 
  677300  0.065200681    4368.2692  0.036668553    4368.4036    175.61992 
  677400  0.069807604     4368.269  0.036228346    4368.4099     175.6195 
  677500  0.074347131    4368.2657  0.035894536    4368.4131     175.6212 
  677600  0.077183619    4368.2678  0.035753918    4368.4192    175.62018 
  677700  0.079795563    4368.2656  0.033069329    4368.4182    175.62073 
  677800  0.074149005    4368.2642  0.043241517    4368.4186    175.61965 
  677900  0.070771253    4368.2617  0.045272334     4368.413    175.62083 
  678000  0.078048223    4368.2607  0.042603434    4368.4203    175.61995 
  678100  0.080347621    4368.2584    0.0378629    4368.4167    175.62089 
  678200  0.077784914    4368.2603  0.040455818    4368.4173    175.62125 
  678300  0.069737373    4368.2658  0.036440161    4368.4067    175.62065 
  678400  0.065314542    4368.2625  0.040486468    4368.4009    175.61896 
  678500  0.065522372    4368.2718  0.038923079     4368.409    175.62053 
  678600  0.070976058    4368.2631  0.042174511    4368.4117    175.62063 
  678700  0.080409833    4368.2671  0.034068243    4368.4217    175.62082 
  678800  0.059631137    4368.2692  0.038209519    4368.3968    175.62057 
  678900    0.0657673    4368.2708  0.027781795    4368.3972    175.62006 
  679000  0.069490274    4368.2704  0.032992911    4368.4075    175.62032 
  679100  0.073809859    4368.2671  0.028794317    4368.4065    175.62053 
  679200  0.062974917    4368.2691  0.039991863    4368.4035    175.62043 
  679300  0.078925364    4368.2571  0.035058237    4368.4105    175.62149 
  679400  0.078974386    4368.2694  0.031412046    4368.4192    175.62046 
  679500  0.065184793      4368.27  0.029537776    4368.3973    175.62066 
  679600  0.070474555    4368.2632  0.030116113    4368.3989    175.62209 
  679700  0.063224363    4368.2642  0.035479396    4368.3944    175.62043 
  679800  0.067465718    4368.2657  0.047181294     4368.414    175.61955 
  679900  0.069352662    4368.2563  0.035625453    4368.3959    175.62065 
  680000  0.072259136    4368.2697  0.035184032    4368.4132    175.62071 
  680100  0.081778079     4368.262  0.034396611     4368.419     175.6201 
  680200  0.084859105    4368.2569  0.028319576    4368.4124    175.62162 
  680300  0.084158209    4368.2729  0.039731742    4368.4387      175.621 
  680400  0.078178562    4368.2615  0.043026509    4368.4217     175.6219 
  680500  0.062762888    4368.2657  0.047218769     4368.407    175.62135 
  680600   0.07398507    4368.2715  0.039268871    4368.4217    175.62109 
  680700  0.070801511    4368.2667  0.037593562    4368.4104    175.62068 
  680800  0.072079373    4368.2673  0.041852379    4368.4171    175.62024 
  680900  0.073121391    4368.2658  0.037934291    4368.4134    175.62185 
  681000  0.080640653    4368.2652  0.050581784    4368.4366    175.62037 
  681100  0.065204119     4368.265  0.045063506    4368.4078    175.62062 
  681200  0.070816406    4368.2701   0.04119489    4368.4175    175.62048 
  681300  0.069522059    4368.2622  0.035230821    4368.4016    175.62083 
  681400  0.065319478    4368.2634  0.046767075    4368.4081    175.62075 
  681500   0.08497136    4368.2613  0.036120041    4368.4248    175.62077 
  681600  0.068388575    4368.2658  0.048187603    4368.4165    175.62006 
  681700  0.081385469    4368.2593  0.046081354    4368.4274    175.61995 
  681800  0.088790901    4368.2715  0.039295285    4368.4438    175.62069 
  681900  0.070647993    4368.2632  0.053340748    4368.4224    175.62066 
  682000   0.06987202    4368.2637  0.045741219    4368.4142    175.62067 
  682100  0.074669994    4368.2628   0.04033444     4368.415    175.62104 
  682200  0.082635401    4368.2712  0.030798621    4368.4259    175.62044 
  682300  0.064877777    4368.2676  0.049637073    4368.4145    175.61986 
  682400  0.066564518    4368.2648  0.035386366    4368.3999    175.62081 
  682500  0.068985268    4368.2618  0.036638878    4368.4018    175.62054 
  682600  0.073347188    4368.2668  0.037829831    4368.4145    175.62065 
  682700  0.071121254    4368.2674  0.033296969    4368.4073    175.62032 
  682800   0.06610669    4368.2644  0.039017147    4368.4025    175.62028 
  682900  0.074616535    4368.2707  0.040340156    4368.4229    175.62183 
  683000  0.076091865    4368.2702  0.046618274    4368.4309     175.6195 
  683100  0.079455289    4368.2696  0.039581096    4368.4282    175.62059 
  683200  0.087458594    4368.2688  0.040225523    4368.4401    175.62054 
  683300  0.085490375    4368.2631  0.038991537    4368.4302    175.62033 
  683400  0.082728743    4368.2712  0.039490292    4368.4347     175.6209 
  683500  0.073720126    4368.2683  0.044438485    4368.4232    175.61988 
  683600  0.081245678    4368.2647   0.03991273    4368.4264    175.62098 
  683700  0.080561258    4368.2627  0.041064215    4368.4245    175.62064 
  683800   0.07697377    4368.2651  0.036395828    4368.4169    175.62103 
  683900   0.08171558    4368.2687  0.040277489    4368.4314    175.61988 
  684000  0.079984779    4368.2654  0.038170751    4368.4235    175.62075 
  684100  0.072327982    4368.2721  0.042436748     4368.423    175.61963 
  684200  0.084580106    4368.2677  0.039813572    4368.4343    175.62118 
  684300  0.092417562    4368.2671  0.036447931    4368.4421    175.62103 
  684400  0.093458294    4368.2656  0.037592334    4368.4432    175.62065 
  684500  0.079367575    4368.2678  0.041145337    4368.4279    175.62052 
  684600  0.085502964    4368.2653  0.027834374    4368.4213    175.62103 
  684700  0.073494767    4368.2601   0.03680375    4368.4071     175.6208 
  684800  0.080282051    4368.2652  0.040026792    4368.4256    175.61962 
  684900  0.081317831    4368.2708  0.033187335    4368.4258     175.6212 
  685000  0.067108991    4368.2657  0.037167324    4368.4035    175.62125 
  685100  0.070151263     4368.269  0.040615681    4368.4148    175.62098 
  685200  0.077238711    4368.2706  0.036233665    4368.4226    175.61948 
  685300  0.081872935    4368.2697  0.033365704    4368.4258    175.62038 
  685400   0.08755553    4368.2698  0.044491926    4368.4455    175.62077 
  685500  0.079687662    4368.2675    0.0390374     4368.426    175.62098 
  685600  0.079590998    4368.2649    0.0452343    4368.4294    175.62016 
  685700   0.07913278    4368.2752  0.041257722    4368.4351    175.61979 
  685800  0.075796018    4368.2648   0.04419314    4368.4226    175.62004 
  685900  0.080643404    4368.2672  0.036993233    4368.4251    175.62006 
  686000  0.083540603    4368.2667  0.040520101    4368.4324    175.61995 
  686100  0.077365079    4368.2667  0.037847784    4368.4205    175.62025 
  686200  0.074652702    4368.2656  0.043684058    4368.4212    175.61937 
  686300  0.082319419    4368.2671  0.034310761    4368.4247    175.62058 
  686400  0.079522318    4368.2669  0.039261412    4368.4253    175.61946 
  686500  0.082219184    4368.2725   0.03955491    4368.4353    175.61939 
  686600  0.075581791    4368.2657  0.040322913    4368.4193    175.62067 
  686700  0.086117004    4368.2678  0.039363883    4368.4363    175.62066 
  686800  0.087476728    4368.2703  0.032363359    4368.4338    175.62005 
  686900  0.077384918    4368.2711  0.037507996    4368.4246    175.62041 
  687000  0.081601328    4368.2645   0.03977301    4368.4266    175.62034 
  687100  0.074622968      4368.27  0.042461755    4368.4243    175.62017 
  687200  0.075465607    4368.2655   0.04505565    4368.4237    175.62139 
  687300  0.082251113    4368.2675  0.025937122    4368.4168    175.62004 
  687400  0.074029735     4368.269  0.042778488    4368.4227    175.62059 
  687500  0.076194288    4368.2685  0.037535369    4368.4202    175.62046 
  687600  0.068794947    4368.2634  0.037901791    4368.4045    175.62042 
  687700  0.074508381     4368.272  0.025636649    4368.4093    175.62006 
  687800  0.073066912    4368.2674  0.033757219    4368.4107    175.62055 
  687900  0.067367483    4368.2643   0.03643921    4368.4017    175.62103 
  688000   0.06346412    4368.2637  0.043036011    4368.4018    175.61952 
  688100  0.084630103    4368.2671  0.039277019    4368.4333    175.61974 
  688200  0.085782832    4368.2647  0.040002654    4368.4333    175.62068 
  688300  0.084584562    4368.2691  0.037465016    4368.4334    175.62137 
  688400   0.07997818      4368.26  0.037862885    4368.4178    175.61994 
  688500  0.078079462    4368.2656  0.044299393    4368.4269    175.62053 
  688600  0.076134305    4368.2703  0.043967425    4368.4284    175.61931 
  688700  0.077339865     4368.271  0.034110558     4368.421    175.62097 
  688800  0.072728467    4368.2744  0.045315444    4368.4287    175.62065 
  688900  0.068042932    4368.2671    0.0339092     4368.403    175.62001 
  689000  0.066655943    4368.2673  0.031498347    4368.3987    175.62005 
  689100  0.079987361    4368.2717  0.033831449    4368.4254    175.62112 
  689200  0.085045518    4368.2671   0.03710575    4368.4317    175.62079 
  689300  0.083032235    4368.2632   0.03761783    4368.4253    175.62047 
  689400  0.073654644    4368.2669  0.040274214    4368.4176    175.62152 
  689500  0.071560791    4368.2676  0.038795908    4368.4136    175.62019 
  689600  0.076549131    4368.2607  0.043453172    4368.4189    175.62032 
  689700  0.071615654    4368.2638  0.051832595    4368.4229    175.61927 
  689800   0.07152807    4368.2674  0.033371757     4368.408    175.61996 
  689900   0.07642887    4368.2679  0.042429833    4368.4249    175.62082 
  690000  0.064100594    4368.2633  0.033398436    4368.3928    175.62108 
  690100  0.079410702    4368.2645  0.027995133    4368.4115    175.62103 
  690200  0.073203233    4368.2616  0.044014821    4368.4154    175.62014 
  690300  0.078068236    4368.2705  0.041720971    4368.4293     175.6209 
  690400  0.069963686     4368.265   0.04860591    4368.4185     175.6196 
  690500  0.077133144    4368.2674  0.040020545    4368.4231    175.62062 
  690600  0.068671928    4368.2667  0.038202751    4368.4078    175.62171 
  690700  0.069687078    4368.2666  0.033681748    4368.4047    175.62067 
  690800  0.070110875    4368.2669   0.03796217      4368.41    175.62032 
  690900  0.081326983    4368.2694  0.039372943    4368.4306     175.6204 
  691000  0.065958853     4368.264  0.041913306    4368.4048    175.62041 
  691100  0.061184386    4368.2728  0.032835046    4368.3973    175.62102 
  691200  0.068183896    4368.2687  0.041122641    4368.4121    175.61954 
  691300  0.064384224    4368.2705  0.035269853    4368.4023    175.61983 
  691400  0.076660402     4368.269  0.035588516    4368.4195    175.62044 
  691500  0.073717135    4368.2721  0.036958495    4368.4196    175.61984 
  691600  0.069488575    4368.2673  0.034014448    4368.4055    175.62012 
  691700  0.069936039    4368.2664  0.040794761    4368.4121    175.62088 
  691800  0.075034083    4368.2661  0.041943323    4368.4205    175.62036 
  691900  0.076270231    4368.2685  0.043718888    4368.4265    175.62091 
  692000  0.087068836    4368.2663  0.043519311    4368.4403    175.61987 
  692100    0.0816992    4368.2685   0.03577453    4368.4268    175.61983 
  692200   0.07344956    4368.2684  0.031554914      4368.41    175.62074 
  692300  0.064590613    4368.2684  0.041613706    4368.4068    175.62019 
  692400  0.081284291    4368.2696  0.046184062    4368.4376    175.62048 
  692500  0.082203766    4368.2657  0.038009408    4368.4269    175.62061 
  692600  0.077622521    4368.2644  0.045542093    4368.4262    175.62007 
  692700  0.082737104     4368.263  0.035601216    4368.4226    175.61988 
  692800  0.071653668    4368.2656  0.045536062    4368.4186    175.62007 
  692900  0.076884684    4368.2686  0.041033147    4368.4249    175.62018 
  693000  0.075654682    4368.2644   0.03235319    4368.4101     175.6205 
  693100  0.075626074    4368.2617  0.031614668    4368.4067    175.62064 
  693200  0.069667725    4368.2661  0.039984688    4368.4106    175.62159 
  693300  0.072141483    4368.2671  0.039097363    4368.4144    175.62127 
  693400  0.076872477    4368.2638  0.043652813    4368.4227    175.62135 
  693500  0.077969353    4368.2676  0.035614173    4368.4201    175.62069 
  693600  0.079997317     4368.264  0.039374262    4368.4232    175.62111 
  693700  0.082006802    4368.2691  0.035312851    4368.4274    175.62028 
  693800  0.071426459    4368.2669  0.035541352    4368.4095    175.62085 
  693900  0.072967674    4368.2666  0.034769286    4368.4107    175.62061 
  694000  0.069635685    4368.2663   0.03576491    4368.4064    175.62004 
  694100  0.073651774    4368.2712    0.0352398    4368.4168    175.62073 
  694200  0.075785475    4368.2588  0.038010693    4368.4104    175.62078 
  694300  0.075238054    4368.2598   0.03746475    4368.4101    175.62134 
  694400  0.083927725    4368.2704  0.035695028    4368.4319    175.62028 
  694500   0.07885733    4368.2687  0.036982668    4368.4238    175.62134 
  694600  0.078264881    4368.2636   0.02777893    4368.4087    175.62033 
  694700   0.06537466    4368.2642  0.030329625    4368.3925    175.62065 
  694800  0.071100047    4368.2656  0.036754328     4368.409    175.62051 
  694900  0.074173237    4368.2701  0.044109389    4368.4254    175.62096 
  695000  0.078471251    4368.2615  0.035934478     4368.415    175.62137 
  695100  0.074726951    4368.2652  0.037294636    4368.4145    175.62045 
  695200  0.070651007    4368.2713  0.037841887     4368.415    175.61993 
  695300  0.064559337     4368.272  0.049376179    4368.4181    175.62028 
  695400  0.073676583    4368.2645  0.044685706    4368.4196    175.62082 
  695500  0.085464361    4368.2715  0.038076973    4368.4377    175.62158 
  695600  0.070061617    4368.2713  0.048953894    4368.4253    175.62064 
  695700  0.072001994     4368.267  0.044609188    4368.4195    175.62057 
  695800  0.076977605    4368.2673  0.036171591    4368.4188    175.62092 
  695900  0.066201802    4368.2659  0.040573831    4368.4057    175.62061 
  696000   0.07280186    4368.2694  0.028520498    4368.4071    175.62146 
  696100  0.069920302    4368.2711  0.044519073    4368.4205    175.62028 
  696200  0.080630408    4368.2631  0.040869068    4368.4248    175.62118 
  696300  0.077799006    4368.2686  0.034929836    4368.4201    175.62039 
  696400  0.068853242    4368.2705  0.036488514    4368.4102    175.62096 
  696500  0.072738869     4368.265  0.042101105    4368.4161    175.62017 
  696600   0.06941992    4368.2665  0.042561297    4368.4132    175.62136 
  696700  0.077624121    4368.2649  0.047102326    4368.4283    175.62036 
  696800  0.072255466    4368.2713  0.040934838    4368.4205    175.62013 
  696900  0.071733764    4368.2719   0.03568541    4368.4151       175.62 
  697000  0.067006393    4368.2663  0.031848444    4368.3986    175.62101 
  697100  0.063246715    4368.2705  0.038377522    4368.4037    175.62067 
  697200  0.069019763    4368.2627  0.052227658    4368.4183    175.61969 
  697300  0.084014854     4368.264  0.049889193    4368.4398    175.62091 
  697400  0.084883065    4368.2746  0.035348294    4368.4372    175.62027 
  697500  0.081929813    4368.2693  0.035364251    4368.4275    175.61963 
  697600  0.075823465     4368.271  0.042945264    4368.4276    175.61986 
  697700  0.084450958    4368.2674  0.037976014     4368.432    175.61997 
  697800  0.074467618     4368.271  0.035559084    4368.4182    175.61997 
  697900  0.079101505    4368.2673  0.033221201    4368.4191    175.62029 
  698000   0.07539897    4368.2665  0.029597331    4368.4091    175.62025 
  698100  0.072615687    4368.2664  0.039318602    4368.4145    175.61986 
  698200  0.069435929    4368.2666  0.033046926    4368.4038    175.62103 
  698300  0.069250813    4368.2676  0.031770966    4368.4032    175.62062 
  698400  0.065322412    4368.2658  0.033177763    4368.3969    175.62107 
  698500  0.070207132    4368.2642  0.023517642     4368.393    175.62105 
  698600   0.06514006    4368.2685    0.0288286     4368.395    175.61967 
  698700  0.066532916    4368.2743  0.032540377    4368.4065    175.62071 
  698800  0.073101397     4368.264  0.038534303    4368.4121    175.62136 
  698900  0.076578331    4368.2713  0.033989667    4368.4201    175.61961 
  699000  0.077387177     4368.269  0.038399555    4368.4234    175.62106 
  699100   0.07752963     4368.268  0.035508688    4368.4198    175.62103 
  699200  0.075337243     4368.266  0.036200616    4368.4151    175.62031 
  699300  0.070383592    4368.2719    0.0334054    4368.4108    175.62102 
  699400  0.068274749    4368.2666  0.033979668    4368.4029    175.62128 
  699500  0.066693587    4368.2643  0.039776687    4368.4041    175.62001 
  699600  0.077219785    4368.2665  0.041880579    4368.4241    175.61964 
  699700  0.090708392    4368.2666  0.031709986    4368.4342    175.62084 
  699800  0.073074249     4368.259  0.039885678    4368.4084    175.62051 
  699900  0.069157296    4368.2694  0.042543113    4368.4156    175.62032 
  700000  0.061667401    4368.2721  0.037259602    4368.4018    175.62083 
  700100  0.065642466    4368.2655  0.038870473    4368.4028    175.62102 
  700200   0.06653341    4368.2681  0.045458399    4368.4133     175.6204 
  700300   0.07314356    4368.2657  0.030439462    4368.4058    175.62112 
  700400   0.07066466    4368.2719  0.039015601    4368.4168    175.62033 
  700500  0.074058072    4368.2663  0.042687293      4368.42    175.61998 
  700600   0.07995745    4368.2681  0.037021917     4368.425    175.62088 
  700700  0.066122687    4368.2714  0.047091595    4368.4176    175.61966 
  700800  0.067387297    4368.2655  0.040195334    4368.4067    175.61995 
  700900  0.068798944    4368.2704  0.036757963    4368.4102    175.62074 
  701000  0.066446762    4368.2726  0.034012606    4368.4062    175.62017 
  701100  0.064942638    4368.2717  0.040423977    4368.4095    175.62012 
  701200  0.073823707     4368.271  0.037333568     4368.419    175.62094 
  701300    0.0730683    4368.2703  0.034983886    4368.4148    175.62001 
  701400  0.066924646    4368.2649  0.036204271    4368.4014    175.62076 
  701500  0.068031979    4368.2732  0.035872633     4368.411    175.62113 
  701600  0.080177214    4368.2693  0.039605277    4368.4291    175.62059 
  701700  0.083832487    4368.2721   0.03770788    4368.4354    175.61984 
  701800  0.077863435    4368.2704  0.039052916    4368.4262     175.6206 
  701900  0.071844704    4368.2734  0.040389133    4368.4215    175.62077 
  702000  0.061930771    4368.2703  0.041824153    4368.4049    175.62089 
  702100  0.069767043     4368.265  0.042310961    4368.4119    175.62054 
  702200  0.079145368    4368.2578  0.039370441    4368.4158    175.62059 
  702300  0.079299301    4368.2699  0.043857384    4368.4326    175.62081 
  702400  0.086898006    4368.2733  0.038787702    4368.4423    175.62066 
  702500  0.085932764    4368.2653   0.03871985    4368.4328    175.62016 
  702600  0.098228327    4368.2685   0.03927914    4368.4551    175.62062 
  702700  0.092754744    4368.2616  0.041578631    4368.4422    175.62183 
  702800  0.080565412    4368.2712    0.0384686    4368.4304    175.62106 
  702900   0.08264131    4368.2632  0.044647722    4368.4317      175.621 
  703000  0.082909414     4368.266  0.034670676     4368.425    175.62081 
  703100   0.07081965    4368.2675  0.051803339    4368.4255     175.6193 
  703200   0.07510016    4368.2642  0.049628796    4368.4264    175.62037 
  703300  0.074766942    4368.2677  0.029484519    4368.4093    175.62027 
  703400  0.072531759    4368.2734  0.040180838    4368.4223    175.61964 
  703500  0.071442018    4368.2655  0.042429916     4368.415    175.62058 
  703600  0.061912862     4368.255  0.039967242    4368.3877    175.62085 
  703700  0.066050125    4368.2605  0.037055726    4368.3965    175.62054 
  703800  0.065304284    4368.2657   0.02866874    4368.3923     175.6203 
  703900  0.078518616    4368.2626  0.030433617    4368.4107    175.62091 
  704000  0.076292824    4368.2622  0.035256197    4368.4118    175.62101 
  704100  0.078481168    4368.2656  0.035071224    4368.4183    175.62089 
  704200  0.069810405    4368.2719  0.038301074    4368.4149    175.62048 
  704300  0.062385534    4368.2648  0.039040107    4368.3973    175.61988 
  704400  0.060521477    4368.2704  0.039059577    4368.4001    175.62085 
  704500  0.069061892    4368.2688  0.041053627    4368.4134    175.62097 
  704600  0.074329146    4368.2685  0.033871423    4368.4138    175.62092 
  704700  0.077788306     4368.266  0.031826602    4368.4144    175.62124 
  704800  0.075336053    4368.2617  0.046233138    4368.4208    175.62001 
  704900  0.082134232    4368.2687  0.034936671    4368.4267     175.6209 
  705000  0.081896794    4368.2649   0.03426028     4368.422    175.62068 
  705100  0.086688853    4368.2708  0.034836588    4368.4355    175.62007 
  705200  0.070368711    4368.2662  0.035097017    4368.4068    175.62044 
  705300  0.082340964    4368.2617  0.050192486    4368.4353     175.6198 
  705400  0.088153895     4368.266  0.037724238    4368.4359    175.62091 
  705500  0.089178386    4368.2693  0.036584103    4368.4395    175.62108 
  705600  0.075048909    4368.2665  0.027194193    4368.4061    175.62068 
  705700  0.074351292    4368.2656  0.036098103    4368.4132    175.62113 
  705800  0.079874563    4368.2701  0.034845532    4368.4247    175.62109 
  705900  0.073008328    4368.2727  0.045298089    4368.4275    175.62134 
  706000  0.074652742    4368.2667   0.04072589    4368.4194     175.6213 
  706100  0.080281296    4368.2661  0.045701159    4368.4321    175.62048 
  706200  0.089793592    4368.2657  0.050038458    4368.4503     175.6199 
  706300  0.078142921    4368.2716  0.038623732    4368.4274    175.62017 
  706400  0.075330419    4368.2734  0.028760157    4368.4151    175.62077 
  706500  0.070035089    4368.2588   0.04193684    4368.4057    175.62044 
  706600   0.07224672    4368.2689   0.03620372    4368.4134    175.62048 
  706700  0.074398303    4368.2702  0.037845171    4368.4195    175.62067 
  706800  0.072878048    4368.2637  0.033165235    4368.4061    175.62036 
  706900  0.066170633    4368.2741  0.029792015     4368.403    175.62004 
  707000  0.068925774    4368.2675  0.032157145     4368.403    175.62105 
  707100  0.074190098    4368.2699  0.033222023    4368.4144    175.62082 
  707200  0.071542119    4368.2682  0.033601058     4368.409    175.62076 
  707300  0.078014067    4368.2636  0.033936083    4368.4144    175.62038 
  707400  0.073696925    4368.2638   0.02859034    4368.4028     175.6209 
  707500  0.071159125    4368.2688  0.052473344    4368.4279    175.62063 
  707600  0.078355989    4368.2641  0.031109067    4368.4127     175.6206 
  707700  0.070436919    4368.2673  0.038440151    4368.4113    175.62175 
  707800  0.074016974    4368.2642  0.037681635    4368.4128    175.62068 
  707900  0.066547267    4368.2645  0.043193487    4368.4075    175.61979 
  708000  0.072404012    4368.2643   0.04059144    4368.4134    175.62044 
  708100   0.07574899    4368.2667  0.041863788    4368.4221    175.62069 
  708200  0.078315482    4368.2635   0.03673949    4368.4176    175.62084 
  708300  0.079515463    4368.2629  0.045553507    4368.4276    175.62031 
  708400  0.079669704    4368.2633  0.045500207    4368.4282    175.62063 
  708500  0.082018018    4368.2743  0.044724313     4368.442    175.62085 
  708600  0.076693552    4368.2692  0.053769725    4368.4379    175.62125 
  708700  0.091390482    4368.2673  0.046338904    4368.4506     175.6214 
  708800  0.073682695    4368.2673   0.03932549    4368.4171    175.62124 
  708900  0.077746929    4368.2668  0.039220254    4368.4225    175.62066 
  709000  0.072093878    4368.2687  0.040272554     4368.417      175.621 
  709100  0.072077004    4368.2656  0.040854638    4368.4144       175.62 
  709200   0.08722677    4368.2689   0.04794875    4368.4476    175.62033 
  709300  0.082676479     4368.263   0.04676349    4368.4337      175.621 
  709400  0.081265646    4368.2643  0.044986156    4368.4311    175.61999 
  709500  0.077899605    4368.2685  0.042976894    4368.4283    175.62021 
  709600  0.075603148    4368.2681  0.045723648    4368.4272    175.62083 
  709700  0.089672343    4368.2587  0.049410478    4368.4425    175.62082 
  709800  0.074321907    4368.2589  0.040396363    4368.4107    175.62086 
  709900  0.080890739    4368.2651  0.048992697    4368.4354    175.62046 
  710000  0.092389979    4368.2618  0.041353534    4368.4416    175.62139 
  710100   0.07934155    4368.2675  0.045935463    4368.4324     175.6203 
  710200  0.077759564    4368.2706  0.054717156    4368.4419    175.62004 
  710300  0.083274256    4368.2655  0.047956327    4368.4383    175.62129 
  710400  0.076416199    4368.2698  0.041666171     4368.426    175.62104 
  710500  0.064381161    4368.2605  0.034490858    4368.3915    175.62075 
  710600  0.066578914    4368.2585  0.027198188    4368.3854    175.62072 
  710700  0.066071133    4368.2692  0.043911965    4368.4121    175.62017 
  710800  0.079631714    4368.2704  0.030780331    4368.4206    175.62129 
  710900  0.076096372    4368.2671  0.042882771     4368.424    175.61988 
  711000  0.082344164    4368.2722  0.038364922     4368.434     175.6194 
  711100  0.072248644    4368.2635  0.038201564      4368.41    175.62087 
  711200  0.072949011    4368.2698  0.037582687    4368.4167     175.6206 
  711300  0.070366435    4368.2642  0.040493247    4368.4102    175.62013 
  711400  0.074787433    4368.2677  0.039438898    4368.4193    175.62138 
  711500  0.083000307    4368.2593  0.033722761    4368.4174    175.62017 
  711600  0.083607367    4368.2704  0.040936461    4368.4367    175.62106 
  711700  0.079108006    4368.2634  0.041429121    4368.4234    175.62145 
  711800  0.084480002     4368.266  0.037117146    4368.4298    175.62107 
  711900  0.081522194     4368.267  0.046123382    4368.4353    175.62017 
  712000  0.072373181     4368.263  0.041058583    4368.4125    175.62015 
  712100  0.071055317    4368.2659  0.039402328    4368.4118    175.62084 
  712200  0.076490009    4368.2641  0.045907666    4368.4247    175.61999 
  712300  0.074813777    4368.2651  0.048467868    4368.4257    175.61991 
  712400  0.075061266    4368.2714  0.039741289    4368.4236     175.6209 
  712500  0.071521025    4368.2679  0.033941156     4368.409    175.62113 
  712600  0.075398304    4368.2666  0.040311741    4368.4199    175.62081 
  712700  0.072241714    4368.2648  0.041568115    4368.4146    175.61962 
  712800  0.077142658    4368.2658    0.0394906    4368.4209    175.62017 
  712900  0.075391133    4368.2667  0.039254737     4368.419    175.62056 
  713000  0.069849714    4368.2637  0.044607686     4368.413    175.61989 
  713100  0.071376642    4368.2653  0.044401028    4368.4167    175.62076 
  713200  0.078286182    4368.2719   0.03679679     4368.426    175.62066 
  713300   0.07541204    4368.2621  0.040428464    4368.4155    175.62064 
  713400   0.07689897     4368.273  0.039186798    4368.4275    175.62184 
  713500  0.073152983    4368.2687  0.042299617    4368.4206    175.61954 
  713600  0.066786088    4368.2737  0.036297711    4368.4101    175.62063 
  713700  0.072459758    4368.2738  0.036975566    4368.4194     175.6201 
  713800  0.072779739    4368.2621  0.031742889    4368.4029    175.62101 
  713900  0.067159983    4368.2604  0.040539432    4368.4016    175.62087 
  714000  0.067349545    4368.2648  0.038734689    4368.4045    175.62018 
  714100  0.082188319    4368.2718  0.037037806    4368.4321    175.62084 
  714200  0.077866924    4368.2682  0.040796426    4368.4257    175.62051 
  714300  0.078416653    4368.2666  0.037130287    4368.4213    175.62004 
  714400  0.076834658    4368.2672  0.036626422     4368.419    175.62035 
  714500  0.075870112    4368.2711  0.040099829    4368.4249     175.6203 
  714600  0.071813876    4368.2657   0.04516746    4368.4185    175.61994 
  714700  0.079747938    4368.2751  0.044241981    4368.4389       175.62 
  714800  0.078791276    4368.2667  0.057560656    4368.4423    175.62063 
  714900  0.065237515    4368.2738  0.045192271    4368.4168    175.62105 
  715000  0.076494718     4368.271  0.037746959    4368.4234    175.62031 
  715100  0.077213268     4368.269  0.037903661    4368.4226    175.62016 
  715200  0.079825629    4368.2649  0.026353236    4368.4109    175.62076 
  715300  0.078613172    4368.2634  0.037154757    4368.4184    175.62073 
  715400  0.072210497    4368.2648  0.026537567    4368.3996    175.62091 
  715500  0.077591274    4368.2728  0.034382143    4368.4234    175.62079 
  715600  0.072281624    4368.2711  0.041037649    4368.4205     175.6205 
  715700  0.067947863    4368.2661  0.036008959     4368.404    175.62048 
  715800  0.070011892    4368.2699  0.051301228    4368.4261    175.62037 
  715900  0.072587656    4368.2683  0.037263814    4368.4144    175.62096 
  716000  0.082647033    4368.2678  0.031571715    4368.4232    175.62162 
  716100  0.078121897    4368.2645  0.034437033     4368.416    175.62143 
  716200  0.071465177    4368.2681   0.03167536    4368.4069    175.62122 
  716300  0.072703934    4368.2655  0.042485814    4368.4169    175.62043 
  716400  0.076985729    4368.2649  0.035170217    4368.4154    175.62098 
  716500  0.077277062    4368.2681  0.037307679    4368.4212    175.62077 
  716600  0.082557262    4368.2634  0.035232555    4368.4224      175.621 
  716700  0.076038122     4368.266  0.039793142    4368.4197    175.62056 
  716800  0.077187135    4368.2657  0.040997867    4368.4224    175.62019 
  716900  0.073072391    4368.2699  0.045629403     4368.425    175.62099 
  717000  0.069902993    4368.2699  0.041582918    4368.4162     175.6198 
  717100  0.074439933    4368.2683  0.040835213    4368.4207    175.62033 
  717200  0.083547808    4368.2713  0.030230693    4368.4268    175.62017 
  717300  0.070524211    4368.2679  0.039785082    4368.4133    175.62086 
  717400  0.060907196    4368.2721  0.039365577    4368.4028    175.62045 
  717500  0.069373678    4368.2656  0.036402746     4368.406    175.62038 
  717600  0.074345524    4368.2637  0.032256552    4368.4074    175.62102 
  717700  0.079830529    4368.2642  0.031500071    4368.4153     175.6214 
  717800  0.085109105    4368.2679  0.042707542    4368.4382    175.61992 
  717900  0.073999872    4368.2746   0.03593566    4368.4215     175.6205 
  718000  0.077377248    4368.2658  0.038232649      4368.42    175.62072 
  718100  0.078869276    4368.2664  0.037640011    4368.4223    175.62065 
  718200  0.080263871    4368.2733  0.033600366    4368.4272    175.62103 
  718300  0.068784577    4368.2657  0.037962887    4368.4068    175.62069 
  718400  0.071444377    4368.2669  0.047342691    4368.4213    175.62081 
  718500   0.07516825    4368.2688  0.042843917    4368.4243    175.61951 
  718600  0.077933065    4368.2702  0.046670948    4368.4337    175.62059 
  718700  0.076911562    4368.2691  0.039874494    4368.4242    175.62048 
  718800     0.081284    4368.2659  0.048226726     4368.436    175.61993 
  718900  0.082055023    4368.2676  0.040181993    4368.4308     175.6204 
  719000  0.072247846    4368.2648  0.035484463    4368.4085    175.62038 
  719100  0.071904041    4368.2687   0.03287472    4368.4093    175.62091 
  719200  0.064901702    4368.2648  0.029877458    4368.3919    175.62101 
  719300  0.064213921    4368.2664  0.031934496    4368.3946    175.62025 
  719400  0.075374011    4368.2691  0.041211841    4368.4233     175.6211 
  719500  0.073054791    4368.2669  0.039140731    4368.4155    175.61964 
  719600  0.070000269    4368.2662  0.044267941    4368.4154    175.62024 
  719700   0.06838023    4368.2682  0.037036198    4368.4077     175.6196 
  719800  0.072615841     4368.271  0.051170244     4368.431     175.6201 
  719900  0.075820908    4368.2664  0.049032737     4368.429    175.61947 
  720000  0.082955507    4368.2738  0.042681262    4368.4409    175.62108 
  720100   0.08726818    4368.2644   0.03522538    4368.4304    175.62131 
  720200  0.075920165    4368.2662   0.05450691    4368.4345    175.61932 
  720300  0.086153308    4368.2619  0.039016019      4368.43    175.62073 
  720400   0.08867452    4368.2724  0.043441435    4368.4488    175.62032 
  720500  0.076624837    4368.2705  0.041435829    4368.4268    175.61981 
  720600  0.066794726     4368.269  0.049981344    4368.4191      175.619 
  720700  0.080435638    4368.2713  0.042416196    4368.4343    175.62123 
  720800  0.080180295    4368.2675  0.045205504    4368.4329    175.62007 
  720900  0.080542362    4368.2656  0.033318139    4368.4196    175.62004 
  721000  0.083309478    4368.2655  0.034384431    4368.4247    175.62091 
  721100  0.093088697    4368.2683  0.031062957    4368.4389    175.62112 
  721200  0.081324087    4368.2749  0.032744793    4368.4296    175.62057 
  721300  0.085520733    4368.2663  0.032765677    4368.4273    175.61986 
  721400  0.075221315    4368.2656  0.044767117    4368.4232    175.62016 
  721500  0.077581493    4368.2727  0.044674877    4368.4336     175.6202 
  721600  0.069340299    4368.2619  0.036349382    4368.4022    175.62171 
  721700  0.068351101    4368.2693  0.041824002    4368.4136    175.62038 
  721800  0.065574599     4368.267  0.043007961    4368.4083    175.61985 
  721900   0.06871889    4368.2728  0.037933425    4368.4137     175.6201 
  722000  0.082535717    4368.2732  0.040516785    4368.4374    175.62077 
  722100   0.08943874    4368.2691  0.032506521    4368.4357    175.62058 
  722200  0.081209943    4368.2672  0.041118138    4368.4301    175.62127 
  722300   0.07492423    4368.2663  0.036622837    4368.4152    175.62026 
  722400  0.083760016    4368.2716  0.038196568    4368.4354    175.61943 
  722500   0.09128061    4368.2661  0.051348778    4368.4542    175.62092 
  722600  0.099390837    4368.2743  0.040682472    4368.4639     175.6208 
  722700  0.077211955     4368.276  0.055731095    4368.4475     175.6192 
  722800  0.084064454    4368.2734  0.046584405    4368.4459    175.62098 
  722900  0.072158588    4368.2678  0.047588479    4368.4236    175.61984 
  723000  0.066851176    4368.2699   0.04522327    4368.4153    175.61968 
  723100  0.065065426      4368.27  0.039322226    4368.4068     175.6207 
  723200  0.079472911    4368.2685  0.030058297    4368.4176    175.62051 
  723300  0.073002103    4368.2684   0.04211532      4368.42     175.6202 
  723400  0.077996578    4368.2688  0.032356974    4368.4181    175.62038 
  723500  0.078552811    4368.2651  0.043571739    4368.4264    175.61967 
  723600  0.074677686    4368.2658  0.037229953     4368.415    175.62031 
  723700  0.079404813    4368.2744  0.029218332    4368.4226    175.62088 
  723800   0.06958232    4368.2682  0.047446623    4368.4199    175.62039 
  723900  0.073031977    4368.2709  0.040451778    4368.4208    175.62022 
  724000  0.070297261    4368.2748  0.041325517    4368.4215    175.62132 
  724100   0.07195954    4368.2643  0.035414517    4368.4075    175.62066 
  724200  0.075441197    4368.2666  0.029388709     4368.409    175.62049 
  724300   0.07622599    4368.2643  0.036053143    4368.4146    175.62047 
  724400  0.074164347    4368.2667  0.034438943    4368.4123    175.62078 
  724500   0.06780116    4368.2603  0.039744813    4368.4016    175.62094 
  724600  0.078305521    4368.2606  0.037203859    4368.4151    175.62015 
  724700  0.080636552    4368.2672  0.038703151    4368.4268    175.62165 
  724800  0.079089417    4368.2617  0.043904959    4368.4241    175.62044 
  724900  0.078245663    4368.2676  0.037279294    4368.4222    175.62086 
  725000  0.074419308     4368.264  0.035570672    4368.4111    175.61981 
  725100  0.069476568     4368.263  0.031800208    4368.3989    175.62061 
  725200  0.076024023    4368.2633   0.02856225    4368.4058    175.62193 
  725300  0.070822895     4368.264    0.0319969    4368.4021    175.62112 
  725400  0.071723896    4368.2586  0.033603657    4368.3997    175.62064 
  725500  0.074366291    4368.2641  0.031112498    4368.4067    175.62071 
  725600  0.072757166    4368.2675  0.045092198    4368.4216    175.62102 
  725700  0.079573808    4368.2628  0.032293313    4368.4144    175.62143 
  725800  0.074618703    4368.2635  0.044511367    4368.4198     175.6202 
  725900  0.083836602    4368.2632  0.034676874    4368.4236    175.62106 
  726000  0.074107277    4368.2644  0.037172681    4368.4126    175.62035 
  726100  0.077934166    4368.2623  0.037571845    4368.4167    175.62038 
  726200  0.087658088     4368.267  0.031495935    4368.4298    175.62116 
  726300  0.074673175    4368.2639  0.038233505     4368.414    175.62157 
  726400  0.075252984     4368.261  0.040053152    4368.4139    175.61974 
  726500  0.063812928    4368.2583  0.046740077    4368.4007    175.62184 
  726600  0.078154248    4368.2651  0.034159729    4368.4164    175.62048 
  726700  0.079431868    4368.2678  0.039171296    4368.4261    175.62047 
  726800  0.074049209    4368.2658  0.041138257     4368.418    175.62074 
  726900  0.076323933    4368.2719  0.040103169    4368.4264    175.62104 
  727000  0.074141406     4368.263  0.038130072    4368.4123    175.61968 
  727100  0.066417134     4368.267  0.034710093    4368.4013    175.62069 
  727200  0.068823046    4368.2706  0.034704506    4368.4085    175.61974 
  727300  0.066546933    4368.2696  0.033877889    4368.4032    175.62066 
  727400  0.068418282    4368.2672  0.027723439    4368.3975    175.62109 
  727500  0.066599254    4368.2667  0.026527787    4368.3931    175.62075 
  727600  0.059918224    4368.2699  0.040085256    4368.3998    175.62006 
  727700  0.077147658      4368.27  0.029082885    4368.4147    175.62146 
  727800  0.075344481    4368.2691  0.046629553    4368.4286    175.62047 
  727900  0.071951562    4368.2566  0.039196391    4368.4036    175.62039 
  728000  0.084191922     4368.269  0.037144679    4368.4323    175.61961 
  728100  0.076398262    4368.2685  0.032557059    4368.4156    175.62112 
  728200  0.064237162    4368.2721  0.042761573    4368.4112    175.62073 
  728300  0.073929737    4368.2625  0.044121063    4368.4174    175.62023 
  728400  0.072226894    4368.2681  0.033886044    4368.4103    175.62106 
  728500  0.075607942    4368.2701  0.030026547    4368.4134     175.6203 
  728600  0.070935203    4368.2637  0.036890244    4368.4069    175.62095 
  728700  0.062195788    4368.2668  0.042969314     4368.403    175.62091 
  728800  0.078988964    4368.2638  0.034079255    4368.4163    175.62051 
  728900  0.076918731     4368.259  0.036513961    4368.4108    175.62064 
  729000  0.071640454     4368.265  0.042114503    4368.4145    175.62057 
  729100  0.076172602    4368.2651  0.029180407    4368.4085    175.62016 
  729200  0.087173803    4368.2629  0.035664023    4368.4292    175.62094 
  729300  0.089421198    4368.2686  0.040367521     4368.443    175.62057 
  729400  0.084597877    4368.2615  0.042155054    4368.4304    175.62038 
  729500  0.082658782    4368.2694  0.044706917     4368.438    175.61973 
  729600  0.070484001     4368.268  0.045052763    4368.4187     175.6207 
  729700   0.07850861    4368.2714    0.0319337     4368.421    175.62009 
  729800  0.079987946     4368.264  0.035360291    4368.4192    175.62134 
  729900  0.072645767    4368.2616  0.031028877    4368.4015    175.62021 
  730000  0.067101859    4368.2673  0.030492469    4368.3984    175.62087 
  730100  0.065046436    4368.2629  0.031105147    4368.3915    175.62089 
  730200  0.069823292     4368.267  0.033322934     4368.405    175.62088 
  730300  0.081118885    4368.2712  0.035218386     4368.428    175.62053 
  730400  0.079321439    4368.2637  0.033415248    4368.4161    175.62004 
  730500  0.068504212    4368.2701  0.034261203     4368.407    175.62051 
  730600  0.067585403    4368.2701  0.032762229    4368.4042    175.62146 
  730700  0.073376924    4368.2669  0.032640316    4368.4095    175.62124 
  730800  0.072040296      4368.27  0.036565719    4368.4146    175.62001 
  730900  0.068237952    4368.2628  0.042823141    4368.4079    175.62038 
  731000  0.065162497     4368.269  0.037555791    4368.4042    175.62022 
  731100  0.072790413    4368.2714  0.027626461    4368.4082     175.6199 
  731200  0.074695438    4368.2688  0.035570669    4368.4163     175.6206 
  731300  0.063774872    4368.2687  0.044461299    4368.4088     175.6207 
  731400  0.070495123    4368.2615  0.047829513     4368.415    175.61967 
  731500  0.081482511    4368.2681  0.031989127    4368.4222    175.62161 
  731600  0.068786294      4368.27  0.041250926    4368.4143    175.62127 
  731700  0.069812314    4368.2718  0.040998596    4368.4174    175.61955 
  731800  0.074420439    4368.2682  0.027060595    4368.4068    175.62069 
  731900  0.075937039    4368.2577  0.027859523    4368.3994    175.62095 
  732000  0.077008984    4368.2704  0.030190682     4368.416    175.62023 
  732100  0.073184605    4368.2644  0.031421582    4368.4056    175.62099 
  732200  0.071181662    4368.2651  0.037762524    4368.4096    175.61934 
  732300  0.069333802     4368.263  0.026265349    4368.3932    175.62117 
  732400   0.06718083    4368.2699  0.036716947    4368.4073    175.62087 
  732500  0.077313597    4368.2654  0.039307796    4368.4206    175.62037 
  732600  0.072966303    4368.2651  0.032987615    4368.4074    175.61973 
  732700  0.070364992    4368.2676  0.030224066    4368.4033    175.62047 
  732800   0.08336734    4368.2721  0.035596406    4368.4327    175.61989 
  732900  0.075549288    4368.2678  0.041807626    4368.4229    175.61987 
  733000  0.079583116    4368.2544   0.03165625    4368.4053    175.62072 
  733100  0.064808235    4368.2667  0.041615171    4368.4055    175.62159 
  733200  0.067463649    4368.2645  0.043987838    4368.4096    175.62072 
  733300  0.058134744    4368.2703  0.048776627    4368.4062    175.61936 
  733400  0.066123697     4368.267  0.035837238     4368.402    175.62053 
  733500  0.067052405    4368.2709  0.038995036    4368.4104    175.61979 
  733600  0.075596062    4368.2673   0.03583893    4368.4164    175.62054 
  733700  0.075716686    4368.2615  0.041390994    4368.4164    175.61976 
  733800  0.075766195    4368.2684  0.036994057    4368.4189    175.61957 
  733900  0.075912136    4368.2701   0.04293373    4368.4269     175.6193 
  734000  0.064443216     4368.269  0.029216538    4368.3948    175.62047 
  734100  0.073689423    4368.2623  0.036885371    4368.4097    175.62014 
  734200  0.077276812    4368.2661   0.03895746    4368.4209    175.62032 
  734300  0.082170525    4368.2707  0.044721493    4368.4386    175.62107 
  734400  0.074142475    4368.2666  0.048916432    4368.4267    175.62063 
  734500  0.077775276    4368.2693  0.040320259    4368.4262    175.62083 
  734600  0.079001382    4368.2666  0.043440183    4368.4285    175.62081 
  734700  0.075562926    4368.2687  0.033458262    4368.4154    175.62033 
  734800  0.078981465    4368.2637  0.047234288    4368.4293    175.61923 
  734900  0.079051904    4368.2591  0.041345397     4368.419     175.6201 
  735000  0.083169941    4368.2616  0.038684146    4368.4249    175.62185 
  735100  0.076412269    4368.2649  0.035921178    4368.4154    175.62065 
  735200   0.07121966    4368.2641  0.036482838    4368.4073    175.61997 
  735300  0.066745093    4368.2649  0.041484874    4368.4064    175.62076 
  735400  0.065305805    4368.2651  0.044200574    4368.4072     175.6197 
  735500  0.078942045    4368.2622  0.036906392    4368.4175     175.6207 
  735600  0.082459168    4368.2614  0.042709824    4368.4277    175.62129 
  735700  0.079973293    4368.2714  0.038229821    4368.4295    175.62085 
  735800  0.076162959    4368.2721  0.043409963    4368.4297    175.62048 
  735900  0.072869987    4368.2661  0.038667753     4368.414    175.62098 
  736000  0.071008249    4368.2645  0.029344443    4368.4002    175.62086 
  736100  0.062336042    4368.2706   0.03602523    4368.4001    175.61983 
  736200  0.069200355    4368.2656  0.035329583    4368.4046    175.62039 
  736300  0.071642994    4368.2686   0.03000681    4368.4059    175.62062 
  736400  0.064058909    4368.2678  0.036745849    4368.4006    175.62136 
  736500  0.072488754    4368.2655  0.030590169    4368.4047    175.62069 
  736600    0.0764364    4368.2704  0.034806337    4368.4198    175.62017 
  736700  0.086102398    4368.2654  0.032886807    4368.4274    175.61971 
  736800  0.067673754    4368.2631  0.042981654    4368.4075    175.62117 
  736900  0.068395933    4368.2693  0.041653013    4368.4135    175.62046 
  737000  0.084384227    4368.2646  0.035529534    4368.4266    175.62078 
  737100  0.079177307    4368.2654  0.037087355    4368.4212    175.62143 
  737200  0.080216963    4368.2693  0.037643144    4368.4272    175.62033 
  737300  0.078706466    4368.2666  0.043824195    4368.4283    175.62075 
  737400  0.074412733    4368.2652  0.045756129    4368.4225     175.6214 
  737500  0.072516694    4368.2623   0.04330142    4368.4143    175.62007 
  737600  0.077173463    4368.2661  0.048240927    4368.4301    175.62011 
  737700  0.083648042    4368.2612  0.038161777    4368.4247    175.62084 
  737800   0.07357671    4368.2703  0.037103063    4368.4177    175.62078 
  737900  0.071135962     4368.268  0.034210877    4368.4088    175.62053 
  738000  0.073653937    4368.2684    0.0287886    4368.4076    175.62069 
  738100  0.069344261    4368.2723  0.038067374    4368.4143    175.62028 
  738200  0.067276989    4368.2717   0.02809449    4368.4006     175.6206 
  738300  0.069205578    4368.2676  0.032984286    4368.4043    175.61974 
  738400  0.071670103    4368.2665  0.031795041    4368.4058    175.62103 
  738500  0.069976077    4368.2649  0.028988255    4368.3988    175.62121 
  738600  0.068073459    4368.2671  0.043094879    4368.4122    175.62075 
  738700  0.082451467    4368.2678  0.036449549    4368.4279    175.62085 
  738800   0.07800598    4368.2627  0.027515347    4368.4071    175.62118 
  738900  0.076217754    4368.2715  0.029917226    4368.4156    175.62017 
  739000  0.078131629     4368.267  0.038109959    4368.4222    175.62021 
  739100  0.082489327    4368.2726  0.047148485    4368.4433    175.61937 
  739200  0.077974126     4368.272  0.032395774    4368.4212    175.62144 
  739300   0.07325464    4368.2686  0.039080648    4368.4175    175.62031 
  739400  0.071795213    4368.2733  0.040600213    4368.4215    175.62015 
  739500  0.081613598     4368.272  0.031624832     4368.426    175.61937 
  739600  0.087125755    4368.2705  0.032384145    4368.4335    175.62135 
  739700  0.082330274    4368.2678  0.048911795    4368.4401    175.61971 
  739800  0.079848349    4368.2699  0.036317211    4368.4259    175.62036 
  739900  0.074638761    4368.2716  0.047894901    4368.4314    175.61996 
  740000  0.075381427    4368.2658  0.054444126    4368.4332    175.62052 
  740100  0.080547084     4368.262  0.033871721    4368.4166    175.62119 
  740200   0.07606267    4368.2654  0.032991505    4368.4124    175.62041 
  740300  0.075637326    4368.2646  0.034860247    4368.4128    175.62148 
  740400  0.071624274    4368.2615  0.039267432    4368.4082    175.62079 
  740500  0.072827383    4368.2673  0.029862857    4368.4063    175.62118 
  740600  0.081490873    4368.2665  0.031139287    4368.4197     175.6213 
  740700  0.069334763    4368.2644  0.040988077    4368.4093    175.61978 
  740800  0.080709517    4368.2691  0.034556774    4368.4246    175.62116 
  740900  0.073665848    4368.2677  0.039090717    4368.4172    175.62047 
  741000  0.070855095    4368.2701   0.03395148    4368.4102     175.6208 
  741100  0.066442178    4368.2656  0.035401855    4368.4005    175.62035 
  741200  0.070933936     4368.269  0.042722044    4368.4181     175.6207 
  741300  0.087925855    4368.2688  0.031499917    4368.4321    175.62068 
  741400   0.08267022    4368.2699  0.040455953    4368.4342    175.62105 
  741500  0.079722729    4368.2697  0.028216447    4368.4174    175.62082 
  741600  0.079582303    4368.2676  0.038228114    4368.4251    175.62115 
  741700  0.081384191    4368.2712  0.047929308    4368.4411    175.61919 
  741800  0.071315989    4368.2667  0.035482701     4368.409    175.62074 
  741900  0.079659956    4368.2666  0.029092344    4368.4151    175.61979 
  742000  0.070524064    4368.2617  0.036811084    4368.4043    175.62005 
  742100  0.071770024    4368.2635   0.03145645    4368.4025    175.62058 
  742200  0.077120232    4368.2661  0.032213422    4368.4139    175.62144 
  742300  0.070059356    4368.2667  0.031832359    4368.4036     175.6212 
  742400  0.070166853    4368.2685  0.043654611    4368.4173    175.61986 
  742500  0.070030081    4368.2739  0.044532565    4368.4234    175.62051 
  742600  0.082084172     4368.269  0.037307779    4368.4293      175.621 
  742700   0.08147533    4368.2689  0.036242283    4368.4273    175.62001 
  742800  0.076043468    4368.2681  0.040840789    4368.4229    175.61994 
  742900   0.07405476     4368.272  0.038666882    4368.4216    175.61944 
  743000  0.073035184    4368.2709  0.036962877    4368.4173    175.62002 
  743100  0.066528166    4368.2684  0.039296961    4368.4075    175.62012 
  743200  0.071224293    4368.2694  0.033173885    4368.4093    175.62006 
  743300  0.079812574    4368.2721  0.038284228      4368.43    175.61983 
  743400  0.087230485    4368.2711  0.041011974    4368.4428    175.62036 
  743500  0.083247853    4368.2703  0.038582038    4368.4337    175.62088 
  743600  0.075709334     4368.267    0.0398033    4368.4202     175.6207 
  743700    0.0608236    4368.2667  0.046019228    4368.4039    175.62025 
  743800  0.071355831    4368.2738  0.043408348    4368.4241    175.61945 
  743900   0.08314869    4368.2689  0.033201108    4368.4267    175.62007 
  744000  0.087796737    4368.2668  0.031208986    4368.4297    175.62044 
  744100  0.074224222    4368.2711  0.044148359    4368.4265    175.61955 
  744200  0.081719067     4368.268  0.041440067    4368.4319    175.62012 
  744300    0.0728029    4368.2686  0.042045059    4368.4198    175.62049 
  744400  0.062689256    4368.2692  0.045792457    4368.4089    175.62103 
  744500  0.073169745    4368.2695  0.032564861    4368.4118    175.62044 
  744600  0.064790332    4368.2676  0.034730574    4368.3994    175.62169 
  744700  0.067637073    4368.2647  0.041408889    4368.4075    175.62043 
  744800  0.079409317    4368.2713  0.031876511    4368.4222    175.62111 
  744900  0.083101131    4368.2666  0.029867557     4368.421    175.62005 
  745000   0.08029064    4368.2675  0.034392701    4368.4223    175.61997 
  745100  0.077104768    4368.2702  0.032181144     4368.418    175.62152 
  745200  0.079430884     4368.265  0.033769607    4368.4178    175.62027 
  745300   0.08398506     4368.267  0.031342545    4368.4242    175.62114 
  745400  0.080338748    4368.2669  0.031958613    4368.4192    175.62161 
  745500  0.075094893    4368.2638  0.028657684     4368.405     175.6207 
  745600  0.079186884    4368.2683  0.035245627    4368.4223    175.62081 
  745700  0.082541589    4368.2672  0.034738013    4368.4257     175.6215 
  745800  0.075319309      4368.27  0.036220489    4368.4191    175.62134 
  745900  0.069552563    4368.2702  0.035033998    4368.4095    175.61976 
  746000  0.069401859    4368.2638  0.027053231    4368.3949    175.62168 
  746100  0.076198382    4368.2661  0.035961798    4368.4163    175.62041 
  746200  0.071303992    4368.2569  0.033776865    4368.3976    175.62013 
  746300  0.073061675    4368.2641  0.033354975    4368.4069    175.62074 
  746400  0.074065569    4368.2631  0.034978235    4368.4091    175.62086 
  746500  0.087820844    4368.2659  0.044512045     4368.442    175.62099 
  746600  0.080550156    4368.2657  0.037701495    4368.4242    175.62039 
  746700  0.076328582     4368.269  0.035430735    4368.4188    175.62059 
  746800  0.075870646      4368.27  0.036559479    4368.4203    175.62012 
  746900  0.073298647    4368.2705  0.037854709    4368.4182    175.62097 
  747000  0.080204395    4368.2756  0.037660497    4368.4334    175.62153 
  747100  0.068804942    4368.2662  0.038536628    4368.4078    175.62059 
  747200    0.0758884    4368.2685  0.030619192    4368.4128    175.61998 
  747300  0.083101717    4368.2737  0.040129434    4368.4383    175.61971 
  747400  0.080333813    4368.2691   0.03676892    4368.4263     175.6199 
  747500   0.07127208    4368.2659  0.042014917    4368.4148    175.61998 
  747600  0.072219711    4368.2675  0.039695496    4368.4154    175.62002 
  747700  0.063968499    4368.2667  0.032626724    4368.3952    175.62096 
  747800  0.066997607    4368.2662  0.034684129    4368.4013    175.62023 
  747900  0.072710152    4368.2686   0.02659636    4368.4042    175.62152 
  748000   0.07309596    4368.2678  0.034619244    4368.4119    175.62169 
  748100  0.072163759    4368.2598  0.037163676    4368.4051    175.62036 
  748200   0.08024911    4368.2626  0.035283161    4368.4182    175.62096 
  748300  0.072129526    4368.2688  0.048652939    4368.4256    175.61985 
  748400  0.073633975    4368.2705  0.036382646    4368.4172    175.62061 
  748500  0.076696385     4368.266  0.041151119    4368.4221     175.6203 
  748600  0.077077896    4368.2678  0.032204129    4368.4155    175.62153 
  748700  0.068477924    4368.2594  0.044606777    4368.4066    175.62007 
  748800  0.078622097    4368.2614  0.036555001    4368.4158     175.6214 
  748900  0.087432425    4368.2629   0.02662543    4368.4206    175.62117 
  749000  0.080164451    4368.2702  0.037253156    4368.4276    175.62044 
  749100  0.068809985    4368.2677  0.041629545    4368.4125    175.62095 
  749200  0.081980975    4368.2705  0.044365047    4368.4378    175.62145 
  749300  0.077642468     4368.271  0.042220285    4368.4296    175.62059 
  749400  0.081904469    4368.2669  0.044411584    4368.4341    175.62111 
  749500  0.081316227    4368.2693  0.036741325     4368.428    175.62035 
  749600  0.073365404    4368.2672  0.042720695    4368.4199    175.62092 
  749700  0.074707164    4368.2725  0.029034454    4368.4135    175.62079 
  749800  0.072661767     4368.273  0.039166795    4368.4211     175.6199 
  749900  0.072609206    4368.2667  0.033330426    4368.4088    175.62012 
  750000  0.071133458    4368.2665  0.032236895    4368.4054    175.62121 
  750100  0.062728047    4368.2587    0.0470231    4368.3998    175.62009 
  750200  0.080770357    4368.2676  0.039892294    4368.4286    175.62155 
  750300  0.074899795    4368.2637  0.041305056    4368.4172    175.62087 
  750400    0.0793617    4368.2725  0.041506797    4368.4329    175.62049 
  750500  0.075433469    4368.2616  0.034492888    4368.4091    175.62027 
  750600  0.068425321    4368.2646  0.043844172     4368.411    175.62021 
  750700  0.069231822    4368.2597  0.032133111    4368.3956    175.62152 
  750800  0.069231584    4368.2599  0.036838297    4368.4005    175.62071 
  750900  0.075509301    4368.2573  0.032140583    4368.4026    175.62078 
  751000  0.078564161    4368.2647  0.037250227    4368.4197    175.62146 
  751100  0.078510769     4368.262  0.037787936    4368.4175    175.61982 
  751200  0.069104545    4368.2615   0.04185106    4368.4069    175.62109 
  751300  0.068150315    4368.2711  0.037228825    4368.4105    175.62112 
  751400  0.077750102    4368.2666  0.034445836    4368.4176    175.62007 
  751500  0.071530997    4368.2702  0.036858554    4368.4143    175.61984 
  751600  0.076217004    4368.2636  0.041251668    4368.4191    175.62065 
  751700  0.065757226    4368.2657  0.039485612    4368.4038    175.62132 
  751800  0.072399374    4368.2705  0.047040817    4368.4261    175.62083 
  751900  0.070286337    4368.2631  0.032214455    4368.4007    175.62099 
  752000  0.072409359     4368.271  0.029588669    4368.4092       175.62 
  752100   0.06656965    4368.2709  0.038190305    4368.4088    175.62034 
  752200  0.078509902    4368.2692  0.029352351    4368.4162    175.62058 
  752300  0.086004649    4368.2706  0.039152106    4368.4387    175.62035 
  752400  0.075237594    4368.2642  0.040652873    4368.4176    175.62114 
  752500  0.073940741    4368.2658  0.037496617    4368.4141     175.6197 
  752600   0.07732064     4368.274     0.039399    4368.4293    175.62012 
  752700  0.068135569    4368.2629  0.043047062     4368.408    175.62137 
  752800  0.071630448    4368.2673  0.032450552    4368.4071    175.62095 
  752900   0.07825885     4368.268  0.040392313    4368.4257    175.62166 
  753000  0.076469681    4368.2712  0.035887003    4368.4217    175.62172 
  753100  0.076957038    4368.2715  0.037538201    4368.4244    175.61989 
  753200  0.064738509    4368.2672  0.038902393    4368.4031     175.6205 
  753300  0.070055047    4368.2693  0.031232993    4368.4055    175.62062 
  753400  0.080719044    4368.2744   0.02787893    4368.4233    175.62072 
  753500  0.071257621    4368.2701  0.028099967     4368.405    175.62084 
  753600  0.069129242    4368.2694  0.032548305    4368.4055    175.62199 
  753700  0.063262854     4368.268  0.040870171    4368.4037    175.61943 
  753800  0.085477383    4368.2648  0.043021458    4368.4359     175.6194 
  753900  0.068860879     4368.263  0.036176368    4368.4023    175.61988 
  754000  0.081066716     4368.273  0.037203252    4368.4317    175.62109 
  754100  0.083648608    4368.2637   0.03901667    4368.4281    175.62046 
  754200  0.080433429     4368.268  0.024657474    4368.4132     175.6212 
  754300  0.077828941    4368.2684  0.040347619    4368.4254    175.62045 
  754400  0.079753635    4368.2718  0.043963166    4368.4353     175.6211 
  754500  0.076476462    4368.2646   0.03569179    4368.4149    175.62031 
  754600  0.071249996    4368.2737    0.0439764    4368.4244    175.62044 
  754700  0.073328662    4368.2678   0.04168015    4368.4194    175.62199 
  754800  0.069756936    4368.2669  0.034563412     4368.406    175.62043 
  754900  0.076685023    4368.2673  0.031157227    4368.4134    175.62083 
  755000   0.06703163     4368.269  0.040538054      4368.41    175.61931 
  755100  0.073425629    4368.2723  0.026222234    4368.4086     175.6214 
  755200  0.082404563    4368.2641  0.030772597    4368.4184    175.61962 
  755300  0.073986983    4368.2693  0.037198978    4368.4174    175.62018 
  755400  0.076182479    4368.2705  0.028947341    4368.4136    175.62065 
  755500  0.068833203    4368.2721  0.036803783    4368.4121    175.62043 
  755600  0.075159541    4368.2722  0.031976894    4368.4168    175.61968 
  755700  0.070595125    4368.2668  0.034179133    4368.4068    175.61971 
  755800  0.063560798    4368.2692  0.034556566     4368.399    175.61998 
  755900  0.068508741    4368.2647  0.033011652    4368.4004    175.62029 
  756000  0.083600168    4368.2693  0.038382469     4368.433    175.62006 
  756100  0.074170403    4368.2677  0.042451735    4368.4213    175.61975 
  756200  0.083564814    4368.2629   0.03368432    4368.4219    175.62084 
  756300  0.070228076    4368.2638  0.041816538    4368.4109    175.62039 
  756400  0.083895194    4368.2646  0.040074022    4368.4304    175.61965 
  756500  0.079538618    4368.2648  0.046767472    4368.4308    175.62002 
  756600  0.081464302    4368.2705   0.05372166    4368.4463     175.6189 
  756700  0.092256783    4368.2699  0.046330807    4368.4546     175.6205 
  756800   0.08133986    4368.2705  0.033626914    4368.4261    175.61988 
  756900   0.08039262     4368.262  0.034562769    4368.4171    175.62071 
  757000  0.073778703    4368.2648  0.052614417     4368.428    175.62013 
  757100  0.082449753    4368.2694  0.035905372    4368.4289    175.62004 
  757200  0.076904634    4368.2715  0.035031694    4368.4218    175.62059 
  757300  0.076020283    4368.2703  0.039413588    4368.4237    175.62013 
  757400  0.075786627    4368.2656  0.040514672    4368.4197    175.61949 
  757500  0.075763747    4368.2678  0.038567986    4368.4199    175.62136 
  757600  0.090667165     4368.274  0.046310894    4368.4562    175.62009 
  757700  0.080009315    4368.2698  0.044230806     4368.434    175.62052 
  757800  0.078791742    4368.2733  0.046683122    4368.4381    175.62027 
  757900  0.075440424    4368.2719  0.036023772    4368.4209    175.62032 
  758000  0.075872476    4368.2698   0.04303908    4368.4266     175.6203 
  758100  0.075356962    4368.2674  0.040865988    4368.4212    175.61983 
  758200  0.080595021    4368.2634  0.032575161    4368.4168    175.61983 
  758300  0.082587694    4368.2639  0.038435196    4368.4261    175.62014 
  758400  0.072435566    4368.2717  0.044603408    4368.4249    175.62039 
  758500  0.085840499    4368.2702  0.043686519    4368.4426    175.62101 
  758600  0.079037514    4368.2674  0.040664117    4368.4265    175.62015 
  758700  0.083750631    4368.2715  0.041096754    4368.4381     175.6205 
  758800   0.07182583    4368.2663  0.037928743    4368.4119    175.62073 
  758900  0.066091447    4368.2698   0.04075592    4368.4096    175.62099 
  759000  0.072608628    4368.2697  0.037400012    4368.4159    175.62058 
  759100  0.072284774    4368.2634  0.038545865    4368.4103    175.62079 
  759200  0.077196528      4368.27  0.039702607    4368.4254    175.62043 
  759300  0.077513002      4368.27  0.038399321    4368.4245    175.62034 
  759400  0.073330809    4368.2649  0.046735816    4368.4216    175.62014 
  759500  0.079229538    4368.2615  0.039923705    4368.4202    175.62037 
  759600  0.070659329    4368.2693   0.04144102    4368.4166    175.62053 
  759700  0.072666424    4368.2748  0.051454615    4368.4352    175.62094 
  759800  0.078439357    4368.2687    0.0408943    4368.4272    175.62018 
  759900  0.073154312    4368.2621  0.045307829    4368.4171    175.62076 
  760000  0.074797921    4368.2686  0.038162525    4368.4189    175.62103 
  760100  0.065920726    4368.2662   0.04484357    4368.4098    175.61956 
  760200  0.072590717    4368.2721  0.029297878    4368.4102    175.62075 
  760300  0.071887978    4368.2699  0.036858858    4368.4145    175.62142 
  760400  0.072588642    4368.2627  0.031922087    4368.4035    175.62129 
  760500   0.07501596    4368.2732  0.034992605    4368.4206    175.62042 
  760600  0.078635861    4368.2712  0.039224649    4368.4283    175.62033 
  760700  0.071990663      4368.27  0.037367682    4368.4153    175.62017 
  760800  0.084210502    4368.2654   0.04427491    4368.4359     175.6206 
  760900  0.075796536    4368.2691  0.040361302     4368.423    175.62099 
  761000  0.076939536    4368.2649   0.03949871    4368.4197    175.62037 
  761100  0.086300596    4368.2669  0.048361911    4368.4446    175.62052 
  761200  0.082647426    4368.2624  0.042128282    4368.4284    175.62071 
  761300  0.082151828    4368.2657  0.041532491    4368.4304    175.61951 
  761400  0.072074638    4368.2663  0.038423257    4368.4127    175.62025 
  761500  0.071263496    4368.2706  0.037062433    4368.4145    175.61999 
  761600  0.071552183    4368.2669  0.035187637    4368.4093    175.62066 
  761700  0.069766288    4368.2658  0.026527669    4368.3969     175.6211 
  761800  0.074025211    4368.2689  0.041047711    4368.4209    175.61984 
  761900  0.068169462    4368.2597  0.035984818    4368.3979    175.62113 
  762000  0.069166942    4368.2671   0.02951361    4368.4002    175.62094 
  762100  0.077054084    4368.2727  0.037712269    4368.4259    175.62046 
  762200  0.065349294    4368.2664  0.037744727    4368.4021    175.62082 
  762300  0.067110067    4368.2696  0.040623719    4368.4108    175.62028 
  762400  0.080055735    4368.2709  0.028525203    4368.4195    175.61986 
  762500  0.077332275    4368.2702  0.043185372    4368.4293    175.62086 
  762600  0.074454001    4368.2678   0.03151043    4368.4109    175.62006 
  762700  0.074296849    4368.2708  0.035835389     4368.418    175.62109 
  762800  0.080025603    4368.2682  0.031521108    4368.4196    175.62044 
  762900  0.079707064    4368.2651  0.041094638    4368.4257    175.62097 
  763000  0.075960939    4368.2668  0.035155818    4368.4158    175.62092 
  763100  0.076366158    4368.2676  0.039581857    4368.4217    175.62121 
  763200  0.072863508    4368.2682  0.040168757    4368.4176    175.62078 
  763300  0.070564966    4368.2647  0.045786909    4368.4163    175.62028 
  763400  0.088574907    4368.2691  0.040588018    4368.4425    175.62074 
  763500  0.079905684    4368.2686  0.046909321    4368.4353    175.61947 
  763600  0.074060987    4368.2678  0.047285545    4368.4261    175.61985 
  763700  0.070530815    4368.2702  0.037005937    4368.4129    175.62111 
  763800    0.0747942    4368.2665  0.042981701    4368.4216    175.62057 
  763900  0.078515117    4368.2696  0.032207783    4368.4195    175.62017 
  764000  0.075766919      4368.27  0.038990706    4368.4225    175.62045 
  764100  0.061743441    4368.2711  0.042324189     4368.406    175.62025 
  764200  0.064093061    4368.2722  0.029999956    4368.3983    175.62088 
  764300  0.063968227    4368.2744  0.039658134      4368.41    175.62053 
  764400  0.076001062    4368.2656  0.040863632    4368.4204    175.62071 
  764500  0.073583787    4368.2727  0.029896754    4368.4129    175.62058 
  764600  0.071194932     4368.267   0.03844671    4368.4122    175.61988 
  764700  0.067076337    4368.2709  0.036993479    4368.4085    175.62077 
  764800    0.0848779    4368.2638  0.028366899    4368.4194    175.62139 
  764900   0.08064283    4368.2581  0.039361042    4368.4184    175.62059 
  765000   0.07133276    4368.2637  0.034485852    4368.4051       175.62 
  765100   0.07717091    4368.2671  0.046285282     4368.429    175.61982 
  765200  0.070415401    4368.2605  0.041336173    4368.4074    175.61983 
  765300  0.074695201    4368.2678  0.034470589    4368.4142     175.6207 
  765400  0.078898541    4368.2664  0.034077086    4368.4187    175.62032 
  765500   0.08844583     4368.272  0.028321087    4368.4329    175.62088 
  765600  0.079638119    4368.2674  0.032884248    4368.4197    175.62104 
  765700  0.081413054    4368.2637  0.032891261    4368.4186    175.62054 
  765800  0.074331987    4368.2633  0.035715223    4368.4104    175.62096 
  765900  0.072891734    4368.2643  0.031588855    4368.4052    175.62052 
  766000  0.076460121    4368.2659   0.03364691    4368.4141    175.62057 
  766100  0.077498837    4368.2609  0.040689492    4368.4177    175.62027 
  766200  0.074880469    4368.2637  0.030619877    4368.4066    175.62154 
  766300  0.074632377    4368.2657  0.041860248    4368.4194    175.62055 
  766400  0.074004343    4368.2653  0.036809526     4368.413    175.62064 
  766500  0.072746508    4368.2642  0.032171898    4368.4054      175.621 
  766600    0.0695256    4368.2693  0.039587477    4368.4131    175.62015 
  766700  0.085828095    4368.2712  0.039502696    4368.4393    175.62048 
  766800  0.082174774    4368.2687  0.037507121    4368.4294    175.62129 
  766900  0.065709678    4368.2733  0.043908716    4368.4157    175.62127 
  767000  0.075962146    4368.2717  0.041757534    4368.4274    175.62047 
  767100   0.06834853    4368.2664  0.030978846    4368.3998    175.62089 
  767200  0.080221446    4368.2692  0.042347723    4368.4317     175.6199 
  767300  0.081505372    4368.2664  0.046848476    4368.4354    175.62072 
  767400  0.076205183    4368.2714  0.046987426    4368.4326    175.62065 
  767500  0.072315611    4368.2717  0.038895817     4368.419    175.62121 
  767600   0.07421044    4368.2687  0.035562875    4368.4155    175.61965 
  767700  0.079617697    4368.2665  0.038026955    4368.4239     175.6206 
  767800  0.073130317    4368.2686  0.039200055    4368.4174    175.61989 
  767900  0.070071006    4368.2748  0.039273703    4368.4191    175.62026 
  768000  0.070294795    4368.2663  0.043395239    4368.4151    175.62025 
  768100  0.078692604    4368.2748  0.044002883    4368.4368    175.62057 
  768200  0.078728054    4368.2722  0.035458678    4368.4256    175.62028 
  768300  0.083234368     4368.274  0.033301361    4368.4321    175.62054 
  768400  0.082275072    4368.2675  0.037899465    4368.4287    175.62051 
  768500  0.075202535    4368.2637  0.043453487    4368.4199    175.62103 
  768600  0.072453431    4368.2722  0.047050585    4368.4278    175.61997 
  768700  0.075462654    4368.2669  0.046460299    4368.4265    175.61979 
  768800  0.079458654    4368.2679  0.044516191    4368.4315    175.62031 
  768900  0.073753318    4368.2689  0.032357172    4368.4118    175.62056 
  769000  0.070795026     4368.267   0.03800574    4368.4112    175.62074 
  769100  0.081463429    4368.2676  0.035453493    4368.4251    175.62041 
  769200  0.077741709    4368.2695  0.037122906    4368.4231    175.62061 
  769300  0.070572229     4368.266  0.031599112    4368.4033     175.6207 
  769400  0.073496682    4368.2626  0.032906164    4368.4057    175.62083 
  769500   0.06917264    4368.2651  0.036991503    4368.4057    175.62132 
  769600   0.07567438    4368.2683   0.03751239    4368.4193    175.62147 
  769700  0.073134978     4368.263   0.05180304    4368.4244    175.62108 
  769800   0.08551757    4368.2655    0.0324804    4368.4262    175.62047 
  769900  0.080687509    4368.2667  0.034519064    4368.4222    175.61999 
  770000   0.07641386    4368.2564  0.035655901    4368.4065    175.62088 
  770100  0.074733689    4368.2681  0.038633668    4368.4188    175.61956 
  770200  0.070836841    4368.2686  0.036843457    4368.4116    175.62045 
  770300  0.070646096    4368.2678  0.030105341    4368.4038    175.62117 
  770400  0.066106177    4368.2636  0.036708312    4368.3994    175.61969 
  770500  0.065108235    4368.2619  0.034481859     4368.394    175.62052 
  770600  0.071560432    4368.2693  0.043877266    4368.4204    175.62083 
  770700  0.079625991    4368.2662  0.040156371    4368.4257    175.61999 
  770800  0.070804489    4368.2638  0.038087515     4368.408    175.62151 
  770900  0.081241612    4368.2679  0.038182272    4368.4278    175.62005 
  771000  0.082739256     4368.264  0.041566751    4368.4296    175.62072 
  771100  0.068910765     4368.259  0.037021378    4368.3993    175.61998 
  771200  0.076184955    4368.2676  0.034802874    4368.4166    175.62135 
  771300  0.073729487     4368.266  0.039131041    4368.4156    175.61994 
  771400  0.069890679    4368.2672  0.035603185    4368.4075    175.62055 
  771500  0.071774239    4368.2644  0.034983358     4368.407    175.62089 
  771600  0.077417987    4368.2642  0.035293292    4368.4156    175.62015 
  771700  0.070902127    4368.2653  0.052016441    4368.4236    175.61884 
  771800  0.075027124    4368.2701  0.040521144    4368.4231    175.62073 
  771900  0.076578861    4368.2689  0.046524959    4368.4302    175.62051 
  772000  0.071799271    4368.2652   0.03546811    4368.4083    175.62067 
  772100  0.071573766    4368.2679  0.043135556    4368.4183    175.62086 
  772200  0.068384684    4368.2668  0.037773017     4368.407    175.62089 
  772300  0.072299833    4368.2596  0.046500558    4368.4145    175.62104 
  772400  0.075084347    4368.2611  0.050962309    4368.4246    175.62068 
  772500  0.082710497    4368.2663  0.042319407    4368.4326    175.62124 
  772600  0.077478147    4368.2656  0.037808425    4368.4195    175.62138 
  772700  0.082753367    4368.2638  0.039506769    4368.4273    175.62016 
  772800  0.083987848    4368.2598  0.044020965    4368.4297    175.62106 
  772900  0.074492216     4368.263   0.03526907    4368.4099    175.62035 
  773000  0.082063003    4368.2604  0.035213748    4368.4186    175.62152 
  773100  0.072100087    4368.2676  0.043519946    4368.4192     175.6202 
  773200  0.077389464    4368.2609  0.040623721    4368.4176    175.62052 
  773300  0.076502482     4368.265   0.04028915    4368.4199    175.62144 
  773400  0.074413549    4368.2615  0.033572934    4368.4066    175.62092 
  773500  0.070921036    4368.2704  0.032676929    4368.4094    175.62009 
  773600  0.078027657    4368.2674  0.036249143    4368.4206    175.62082 
  773700  0.081678365    4368.2669  0.035044177    4368.4243    175.62008 
  773800  0.081109178    4368.2642  0.036496017    4368.4223    175.61966 
  773900  0.073877832    4368.2696  0.035186745    4368.4155     175.6199 
  774000  0.069557862    4368.2667  0.038476531    4368.4094    175.61906 
  774100  0.064156487    4368.2641  0.032853932    4368.3931    175.62079 
  774200  0.068981999    4368.2626  0.037251675    4368.4032    175.62065 
  774300  0.071772979    4368.2684  0.036299459    4368.4122    175.62124 
  774400  0.084334256    4368.2699  0.039394088    4368.4357    175.62118 
  774500  0.077700775    4368.2715  0.034733807    4368.4227    175.62108 
  774600  0.077083667    4368.2689  0.042507134     4368.427    175.62102 
  774700   0.07647606    4368.2635   0.04187605      4368.42    175.62068 
  774800    0.0648597    4368.2734   0.05476791    4368.4254    175.62029 
  774900  0.081898447    4368.2678    0.0354414     4368.426    175.62028 
  775000  0.079571969    4368.2714  0.045291471     4368.436     175.6196 
  775100  0.080367865    4368.2612  0.034848293    4368.4165    175.62082 
  775200  0.082525257    4368.2704  0.041690466    4368.4358    175.62117 
  775300  0.089949272    4368.2676  0.043964131    4368.4464    175.62072 
  775400  0.075171671    4368.2722  0.046933359    4368.4318    175.62153 
  775500  0.087354378    4368.2699    0.0455661    4368.4464    175.62011 
  775600  0.079914531    4368.2747  0.039645463    4368.4341    175.62159 
  775700  0.079297197    4368.2658   0.03438142     4368.419     175.6211 
  775800  0.085284212    4368.2615   0.03399569    4368.4234     175.6213 
  775900   0.08138193    4368.2665  0.033583036     4368.422    175.62067 
  776000  0.079339848    4368.2702  0.039229021    4368.4283    175.62093 
  776100  0.081113075    4368.2629  0.038722892    4368.4232    175.62081 
  776200  0.075067554    4368.2684  0.040269548    4368.4212    175.61953 
  776300  0.068562357    4368.2705  0.044905567    4368.4181    175.62095 
  776400  0.068633564    4368.2692  0.035382809    4368.4075    175.62133 
  776500  0.071332739    4368.2736  0.033046571    4368.4136    175.62066 
  776600  0.076148815    4368.2648  0.037162141    4368.4161    175.62009 
  776700  0.076362923    4368.2726  0.041342614    4368.4284    175.61991 
  776800  0.072498719    4368.2626  0.037930805    4368.4092    175.61996 
  776900  0.068671809    4368.2641  0.037231409    4368.4042    175.62057 
  777000  0.063847668    4368.2644  0.036322342    4368.3964    175.62017 
  777100  0.071007751    4368.2628  0.032643836    4368.4019    175.62167 
  777200  0.067398325    4368.2696  0.035028814    4368.4056    175.62022 
  777300  0.060362264    4368.2731  0.041133209    4368.4047    175.61962 
  777400  0.068266398    4368.2607  0.032442151    4368.3954    175.62108 
  777500  0.073457369    4368.2684  0.026385917    4368.4049    175.62097 
  777600  0.069726527    4368.2678  0.028071089    4368.4003    175.62085 
  777700   0.07133122    4368.2709  0.031881037    4368.4097    175.62071 
  777800  0.063301608     4368.271  0.033601639    4368.3995    175.62016 
  777900  0.060811789    4368.2685  0.033357306     4368.393     175.6203 
  778000  0.069528844    4368.2658  0.032491735    4368.4025    175.62134 
  778100  0.074962144    4368.2677  0.037367347    4368.4175     175.6196 
  778200  0.075106125    4368.2683  0.049486062    4368.4303    175.61946 
  778300  0.082321277    4368.2724  0.035215624     4368.431    175.62089 
  778400  0.081920442    4368.2631  0.030612623    4368.4165    175.62049 
  778500   0.07580874    4368.2719  0.036693371    4368.4222    175.62066 
  778600  0.069133884    4368.2649  0.037870978    4368.4064    175.62004 
  778700  0.066613608    4368.2668  0.035550985    4368.4022    175.62079 
  778800  0.074029689    4368.2712  0.035905153    4368.4181    175.62016 
  778900  0.074116496    4368.2744  0.038776062    4368.4243    175.62043 
  779000  0.083589676    4368.2674  0.036275324     4368.429    175.62069 
  779100   0.08267591    4368.2651  0.042108288    4368.4311    175.62109 
  779200  0.070042413    4368.2686  0.034446735    4368.4081    175.62088 
  779300  0.068141473    4368.2644  0.033861973    4368.4004    175.62051 
  779400  0.061970613    4368.2647  0.034935039    4368.3926     175.6202 
  779500  0.076897455    4368.2662  0.035017589    4368.4165    175.62048 
  779600  0.079626835    4368.2712  0.029988965    4368.4205    175.62083 
  779700   0.07124709     4368.269  0.045560955    4368.4214    175.62106 
  779800  0.079114914    4368.2701  0.044186519    4368.4328    175.62044 
  779900  0.082609646    4368.2718  0.054419102      4368.45    175.62068 
  780000  0.083095527    4368.2708  0.043908926    4368.4393    175.62134 
  780100  0.073471911    4368.2666  0.037948852    4368.4146    175.62101 
  780200  0.071725593     4368.268  0.038742817    4368.4143    175.62069 
  780300  0.071539005    4368.2697  0.034300481    4368.4112    175.62024 
  780400   0.06580083    4368.2618  0.033388566    4368.3938    175.62133 
  780500  0.067793389     4368.268  0.033122284    4368.4027    175.62042 
  780600    0.0755924    4368.2622  0.035024667    4368.4105    175.62039 
  780700   0.07664943    4368.2669   0.04393096    4368.4257    175.61994 
  780800  0.073827988     4368.273  0.038561684    4368.4222    175.62152 
  780900  0.073450332    4368.2629  0.035173244    4368.4082    175.62071 
  781000  0.067331574    4368.2735  0.032654547    4368.4071    175.62101 
  781100  0.075947323     4368.268  0.036736869    4368.4186    175.62058 
  781200  0.073174379    4368.2618  0.041141203    4368.4126    175.62017 
  781300  0.074351187     4368.266  0.038266807    4368.4157     175.6214 
  781400  0.070298201    4368.2654  0.037628455    4368.4084    175.62081 
  781500  0.082404083    4368.2685  0.034256041    4368.4263    175.62178 
  781600  0.077370101    4368.2705  0.041747366    4368.4283     175.6207 
  781700  0.077023306    4368.2584  0.034545791    4368.4084    175.62075 
  781800  0.064071213    4368.2733  0.030753344    4368.4001    175.61953 
  781900  0.065899967    4368.2644  0.033754752     4368.397    175.62123 
  782000  0.067240666    4368.2681  0.041132527      4368.41    175.62092 
  782100  0.077789763    4368.2716  0.034332452    4368.4225    175.62048 
  782200   0.07071061    4368.2674  0.038023935    4368.4114    175.62183 
  782300  0.075455744    4368.2614  0.042427237     4368.417    175.62058 
  782400  0.079257877    4368.2672   0.03672345    4368.4227    175.62018 
  782500  0.078848176    4368.2734  0.031436431     4368.423    175.62044 
  782600  0.079703003      4368.27  0.033601686    4368.4231     175.6212 
  782700  0.077674732    4368.2666  0.048107315    4368.4312    175.62029 
  782800  0.075042361     4368.272  0.038457671    4368.4229    175.62081 
  782900   0.07689708    4368.2702  0.035475863    4368.4209    175.62026 
  783000  0.079363291    4368.2667  0.046983246    4368.4326    175.62086 
  783100  0.073622235    4368.2675  0.042908899    4368.4207    175.62084 
  783200  0.087049283    4368.2657  0.036114728    4368.4323    175.62042 
  783300  0.073861285    4368.2725  0.037590497    4368.4208    175.62009 
  783400  0.078649895    4368.2658  0.032938728    4368.4166    175.62141 
  783500  0.067642801    4368.2666  0.032689574    4368.4007    175.62001 
  783600  0.074772405    4368.2693  0.038435509    4368.4198    175.62081 
  783700  0.069910318    4368.2639  0.034212199    4368.4029    175.62042 
  783800  0.071353903     4368.265  0.038214032    4368.4102    175.62035 
  783900  0.071877344    4368.2723  0.032877687    4368.4129    175.62038 
  784000   0.07954273    4368.2644  0.040775371    4368.4244    175.62072 
  784100  0.084407939    4368.2601  0.038369843     4368.425    175.62146 
  784200  0.081695439    4368.2691  0.044051491    4368.4356    175.62033 
  784300   0.07924737    4368.2647  0.041857829    4368.4253    175.62084 
  784400  0.084278334    4368.2661  0.036019888    4368.4285    175.62067 
  784500  0.090787826    4368.2659  0.041912019    4368.4439    175.62075 
  784600  0.080267429    4368.2653   0.04133304    4368.4269    175.62053 
  784700  0.079455085    4368.2691  0.031205551    4368.4194    175.62067 
  784800   0.07514815    4368.2655  0.041545668    4368.4197    175.62006 
  784900  0.077247851    4368.2675   0.04433714    4368.4276    175.61966 
  785000  0.076157016    4368.2648   0.04330604    4368.4222    175.62083 
  785100   0.07535178    4368.2662  0.042975064    4368.4221    175.62028 
  785200  0.072974746    4368.2671  0.052085622    4368.4286    175.61932 
  785300  0.075435314    4368.2674  0.043749304    4368.4242    175.62008 
  785400  0.075726594    4368.2634  0.043173398    4368.4201    175.62063 
  785500  0.073885237     4368.266   0.04198601    4368.4187    175.62081 
  785600  0.082085326    4368.2677  0.033561998    4368.4243    175.62105 
  785700  0.067517891    4368.2642  0.040027083    4368.4055    175.62002 
  785800   0.08256282    4368.2635  0.034147337    4368.4214    175.62086 
  785900  0.080248548    4368.2636  0.032271577    4368.4162    175.62111 
  786000  0.080709166    4368.2673  0.045722096     4368.434     175.6214 
  786100  0.080965274    4368.2642     0.042325    4368.4279    175.62024 
  786200  0.084737586    4368.2621  0.034443813    4368.4235    175.62065 
  786300  0.078252213    4368.2718  0.037745177    4368.4268    175.62026 
  786400  0.085288733    4368.2673  0.035857339     4368.431    175.62101 
  786500  0.076744869    4368.2699  0.033341041    4368.4183    175.62084 
  786600  0.082585183    4368.2657   0.03219133    4368.4217     175.6207 
  786700  0.078913309    4368.2682  0.035684604    4368.4221    175.61997 
  786800  0.080257817    4368.2678  0.042174952    4368.4302    175.61967 
  786900  0.080265354    4368.2644  0.043936938    4368.4287    175.62049 
  787000  0.083213817    4368.2647  0.046656951    4368.4361    175.62083 
  787100  0.081601531    4368.2686  0.036078666     4368.427    175.62099 
  787200  0.080551993    4368.2731   0.03446134    4368.4283    175.62068 
  787300  0.075482677    4368.2659  0.034649913    4368.4137    175.62039 
  787400  0.069719017     4368.266  0.035126716    4368.4056    175.62055 
  787500  0.077042092    4368.2681  0.030867605    4368.4145    175.62087 
  787600  0.077017607    4368.2682  0.037703465    4368.4214    175.62021 
  787700  0.083914794    4368.2692  0.039024451     4368.434     175.6207 
  787800  0.070697572    4368.2707  0.030941756    4368.4076    175.62058 
  787900  0.067402413    4368.2711  0.049669991    4368.4218    175.62028 
  788000  0.078829904    4368.2728  0.047008841    4368.4379    175.62063 
  788100  0.079910264    4368.2735  0.044642621    4368.4379    175.61939 
  788200  0.078565159    4368.2669   0.04322628    4368.4279    175.62001 
  788300  0.079263037    4368.2714  0.031205363    4368.4214    175.62083 
  788400  0.073979968    4368.2693  0.033718894    4368.4139    175.62089 
  788500  0.082288564    4368.2716  0.029861844    4368.4248    175.62048 
  788600  0.067720568    4368.2583  0.038254477     4368.398    175.62126 
  788700  0.070761735    4368.2679  0.032560302    4368.4065    175.62052 
  788800  0.072750347    4368.2651  0.030879136     4368.405    175.62076 
  788900  0.069541045    4368.2689  0.035089144    4368.4082    175.62062 
  789000  0.078344555    4368.2654   0.03705645    4368.4199    175.62002 
  789100  0.072014384    4368.2704  0.039058197    4368.4174    175.61957 
  789200  0.086872485    4368.2683  0.039542601     4368.438     175.6201 
  789300  0.082298976    4368.2746  0.036235768    4368.4342    175.62145 
  789400  0.078797493     4368.272  0.038658845    4368.4287    175.62023 
  789500  0.076599907    4368.2722  0.044034936    4368.4311    175.61983 
  789600  0.081124618    4368.2691  0.045149309    4368.4359     175.6207 
  789700  0.076748799     4368.264  0.054020561     4368.433     175.6208 
  789800  0.079195401    4368.2693  0.040587378    4368.4286    175.62017 
  789900  0.081296617    4368.2668  0.043726659    4368.4324    175.62165 
  790000  0.076550322    4368.2684  0.044791811    4368.4279    175.62043 
  790100  0.082186587    4368.2649  0.044986639    4368.4331    175.62142 
  790200  0.077434762    4368.2695  0.047910499    4368.4335    175.62159 
  790300  0.070662622      4368.26  0.051985791    4368.4178    175.62009 
  790400  0.075041538    4368.2683  0.031985322    4368.4128    175.62077 
  790500  0.068151469    4368.2722   0.03677274    4368.4111    175.62014 
  790600   0.06846587    4368.2652  0.036192066     4368.404    175.61996 
  790700  0.060952699    4368.2655  0.034988495    4368.3918    175.61954 
  790800  0.062782562    4368.2637  0.044845532    4368.4027    175.62042 
  790900  0.075282034    4368.2678  0.038535409    4368.4192    175.62084 
  791000  0.074231866    4368.2664  0.034043955    4368.4117    175.61984 
  791100  0.060534653    4368.2639  0.044090754    4368.3987    175.62042 
  791200  0.077164526    4368.2671   0.03552236    4368.4183    175.62013 
  791300  0.071910729    4368.2666  0.040096541    4368.4145    175.62033 
  791400  0.067133692    4368.2741  0.035771727    4368.4105    175.62078 
  791500  0.071363352    4368.2748  0.029785479    4368.4116    175.62017 
  791600  0.067986483    4368.2683  0.042469296    4368.4127    175.62052 
  791700  0.071011913    4368.2698  0.042585069    4368.4188    175.62077 
  791800  0.077326697     4368.268  0.039396576    4368.4233    175.61983 
  791900  0.075568267    4368.2713  0.040572692    4368.4251    175.62057 
  792000  0.069963753    4368.2715  0.033075532    4368.4094    175.62034 
  792100  0.070635671     4368.265  0.038357604    4368.4092    175.62055 
  792200  0.079102412    4368.2702  0.038319106    4368.4271    175.61979 
  792300  0.076031107    4368.2694   0.03761747     4368.421    175.62052 
  792400  0.068738215    4368.2692  0.034772031     4368.407    175.62025 
  792500   0.06586402    4368.2711  0.044895883    4368.4147    175.62085 
  792600  0.073314038    4368.2688   0.03094759    4368.4096    175.62031 
  792700  0.082113385     4368.272  0.031714032    4368.4268    175.62076 
  792800  0.086283552    4368.2716  0.043121619    4368.4441    175.62104 
  792900  0.074536268    4368.2688  0.046083011    4368.4266    175.61984 
  793000  0.072174942    4368.2666  0.035716878    4368.4105    175.62109 
  793100  0.071373093    4368.2696  0.031886832    4368.4085    175.62013 
  793200  0.069004738    4368.2686  0.037757118    4368.4098    175.61986 
  793300  0.078989603    4368.2699  0.037587702    4368.4259    175.62087 
  793400  0.064663586    4368.2747  0.036827138    4368.4084    175.62018 
  793500  0.072136933    4368.2693  0.046423574    4368.4239    175.61932 
  793600  0.070905511    4368.2687  0.039600127    4368.4145    175.62096 
  793700  0.066390949    4368.2727  0.036389068    4368.4086    175.62095 
  793800  0.065168091    4368.2741  0.034160025    4368.4059    175.62093 
  793900  0.069468218    4368.2702  0.032596062     4368.407     175.6203 
  794000  0.076039224    4368.2767  0.037051325    4368.4277    175.62058 
  794100  0.077664376    4368.2659  0.038908045    4368.4213    175.62132 
  794200  0.063896119    4368.2677   0.04237699    4368.4058    175.62022 
  794300  0.065928856    4368.2695  0.036549079    4368.4049    175.61995 
  794400  0.063099943    4368.2665  0.032443884    4368.3935    175.62027 
  794500   0.06055726     4368.269  0.039298772    4368.3991    175.62015 
  794600  0.070304287    4368.2686  0.035529014    4368.4095     175.6211 
  794700  0.069836204    4368.2595  0.036924361    4368.4011    175.62046 
  794800  0.070820228    4368.2722  0.030203321    4368.4086    175.61979 
  794900  0.072718243    4368.2639  0.035990916    4368.4089    175.62102 
  795000  0.075046963    4368.2666  0.042630897    4368.4218    175.62106 
  795100  0.078500091    4368.2699  0.039262412    4368.4268    175.61962 
  795200  0.070668301    4368.2647  0.037214329    4368.4079    175.62155 
  795300  0.064508214    4368.2634  0.053161132    4368.4133    175.62043 
  795400  0.072167684    4368.2695   0.04074369    4368.4184    175.62066 
  795500   0.07232115     4368.261  0.038363433    4368.4077    175.61978 
  795600  0.076386501     4368.269  0.040485328    4368.4239    175.62043 
  795700  0.089357828    4368.2714  0.038522895    4368.4439    175.62075 
  795800  0.079490203    4368.2689  0.036761172    4368.4248    175.62116 
  795900  0.074385164    4368.2716  0.043607826    4368.4267    175.62128 
  796000  0.074631099     4368.268  0.033986927    4368.4138     175.6204 
  796100  0.074104969    4368.2643  0.038900328    4368.4143    175.62029 
  796200  0.070664924    4368.2668  0.035914121    4368.4086    175.62107 
  796300  0.073488931    4368.2742  0.035066777    4368.4194    175.62128 
  796400   0.07446072    4368.2689  0.036386255    4368.4169    175.62031 
  796500   0.07454594    4368.2661  0.042932376    4368.4208    175.62111 
  796600  0.076516972    4368.2628  0.048990667    4368.4264    175.61938 
  796700  0.076283111    4368.2664  0.039654007    4368.4204    175.62047 
  796800  0.068155983    4368.2641  0.040892436    4368.4072    175.61976 
  796900   0.07315012    4368.2654   0.03313989    4368.4082    175.62038 
  797000  0.079407766     4368.275  0.033819684    4368.4278    175.62044 
  797100    0.0798047    4368.2701  0.032305959     4368.422    175.62061 
  797200  0.076281523    4368.2694  0.042713388    4368.4264    175.61989 
  797300  0.084700041    4368.2626  0.031397228     4368.421    175.62117 
  797400  0.085189121    4368.2626  0.036164093    4368.4264    175.62114 
  797500  0.080177489    4368.2652  0.036201958    4368.4216     175.6206 
  797600  0.075297096    4368.2673  0.038635759    4368.4188    175.62025 
  797700  0.069587486    4368.2653  0.030686108    4368.4003    175.62148 
  797800  0.083579668    4368.2707  0.036827545    4368.4328    175.62058 
  797900  0.075236971    4368.2679  0.042415955    4368.4231    175.62109 
  798000  0.075241591    4368.2591  0.040438063    4368.4123    175.62111 
  798100  0.066825718    4368.2699  0.037636897    4368.4077    175.62028 
  798200  0.060246875    4368.2715  0.039536203    4368.4013     175.6205 
  798300  0.067336375     4368.273  0.041195368    4368.4151    175.61969 
  798400  0.069954673    4368.2684  0.031079912    4368.4043    175.62081 
  798500  0.073232401    4368.2761  0.028386073    4368.4143    175.62131 
  798600  0.071271121    4368.2707  0.034505022     4368.412    175.62139 
  798700  0.067028117    4368.2637  0.038094125    4368.4022    175.62076 
  798800  0.076387805    4368.2607  0.033974464    4368.4091    175.62108 
  798900  0.081784309    4368.2632  0.027821181    4368.4136    175.62104 
  799000  0.078630538    4368.2665  0.035817519    4368.4202    175.62082 
  799100  0.076290604    4368.2673  0.033978221    4368.4156    175.62027 
  799200  0.067582091    4368.2694  0.042565689    4368.4133    175.61983 
  799300  0.072201892     4368.264  0.031035742    4368.4033    175.62101 
  799400  0.078622612    4368.2715  0.035636605     4368.425    175.62021 
  799500  0.078975608    4368.2629  0.034265461    4368.4155    175.61912 
  799600  0.070296166    4368.2687  0.040012257    4368.4141    175.61893 
  799700  0.085306195    4368.2704  0.044657135    4368.4429    175.62191 
  799800  0.079774527    4368.2738  0.040739394    4368.4341    175.61996 
  799900  0.073702122    4368.2682  0.035473135    4368.4141    175.62016 
  800000  0.080291388    4368.2679  0.032076827    4368.4203    175.62082 
Loop time of 76.0622 on 1 procs for 800000 steps with 1318 atoms

Performance: 4543650.881 tau/day, 10517.710 timesteps/s
97.5% CPU use with 1 MPI tasks x 1 OpenMP threads

MPI task timing breakdown:
Section |  min time  |  avg time  |  max time  |%varavg| %total
---------------------------------------------------------------
Pair    | 41.287     | 41.287     | 41.287     |   0.0 | 54.28
Bond    | 0.95948    | 0.95948    | 0.95948    |   0.0 |  1.26
Neigh   | 21.397     | 21.397     | 21.397     |   0.0 | 28.13
Comm    | 1.7385     | 1.7385     | 1.7385     |   0.0 |  2.29
Output  | 3.3709     | 3.3709     | 3.3709     |   0.0 |  4.43
Modify  | 6.0322     | 6.0322     | 6.0322     |   0.0 |  7.93
Other   |            | 1.278      |            |       |  1.68

Nlocal:        1318.00 ave        1318 max        1318 min
Histogram: 1 0 0 0 0 0 0 0 0 0
Nghost:        181.000 ave         181 max         181 min
Histogram: 1 0 0 0 0 0 0 0 0 0
Neighs:        5954.00 ave        5954 max        5954 min
Histogram: 1 0 0 0 0 0 0 0 0 0

Total # of neighbors = 5954
Ave neighs/atom = 4.5174507
Ave special neighs/atom = 0.44613050
Neighbor list builds = 40000
Dangerous builds not checked




Total wall time: 0:01:16
